          50

N     4.96057350657239        0.626666167821521        0.768318582094618    
N     4.84291580564316         1.24344943582427        0.157877299191583E-01
N     4.64888242944126         1.84062276342339        0.529083147550630E-04
N     4.38153340021932         2.40876837050858        0.706684026267272E-07
N     4.04508497187474         2.93892626146237        0.503527725278622E-10
N     3.64484313710706         3.42273552964344        0.221274782312211E-13
N     3.18711994874345         3.85256621387895        0.652599304563694E-17
N     2.67913397489498         4.22163962751008        0.136220760863072E-20
N     2.12889645782536         4.52413526233010        0.208311905881327E-24
N     1.54508497187474         4.75528258147577        0.238624954375151E-28
N    0.936906572928624         4.91143625364344        0.207499912539408E-32
N    0.313952597646568         4.99013364214136        0.137798136588219E-36
N   -0.313952597646567         4.99013364214136        0.698505679013773E-41
N   -0.936906572928623         4.91143625364344        0.698505679013773E-41
N    -1.54508497187474         4.75528258147577        0.137798136588219E-36
N    -2.12889645782536         4.52413526233010        0.207499912539408E-32
N    -2.67913397489498         4.22163962751007        0.238624954375151E-28
N    -3.18711994874345         3.85256621387895        0.208311905881327E-24
N    -3.64484313710706         3.42273552964344        0.136220760863072E-20
N    -4.04508497187474         2.93892626146237        0.652599304563694E-17
N    -4.38153340021932         2.40876837050858        0.221274782312211E-13
N    -4.64888242944126         1.84062276342339        0.503527725278622E-10
N    -4.84291580564315         1.24344943582428        0.706684026267272E-07
N    -4.96057350657239        0.626666167821523        0.529083147550630E-04
N    -5.00000000000000        0.612323399573677E-15    0.157877299191583E-01
N    -4.96057350657239       -0.626666167821522        0.768318582094618    
N    -4.84291580564316        -1.24344943582427        0.157877299191583E-01
N    -4.64888242944126        -1.84062276342339        0.529083147550630E-04
N    -4.38153340021932        -2.40876837050858        0.706684026267272E-07
N    -4.04508497187474        -2.93892626146236        0.503527725278622E-10
N    -3.64484313710706        -3.42273552964344        0.221274782312211E-13
N    -3.18711994874345        -3.85256621387895        0.652599304563694E-17
N    -2.67913397489498        -4.22163962751008        0.136220760863072E-20
N    -2.12889645782536        -4.52413526233010        0.208311905881327E-24
N    -1.54508497187474        -4.75528258147577        0.238624954375151E-28
N   -0.936906572928623        -4.91143625364344        0.207499912539408E-32
N   -0.313952597646566        -4.99013364214136        0.137798136588219E-36
N    0.313952597646564        -4.99013364214136        0.698505679013773E-41
N    0.936906572928621        -4.91143625364344        0.698505679013773E-41
N     1.54508497187474        -4.75528258147577        0.137798136588219E-36
N     2.12889645782536        -4.52413526233010        0.207499912539408E-32
N     2.67913397489498        -4.22163962751008        0.238624954375151E-28
N     3.18711994874345        -3.85256621387895        0.208311905881327E-24
N     3.64484313710706        -3.42273552964344        0.136220760863072E-20
N     4.04508497187474        -2.93892626146237        0.652599304563694E-17
N     4.38153340021932        -2.40876837050858        0.221274782312211E-13
N     4.64888242944126        -1.84062276342339        0.503527725278622E-10
N     4.84291580564315        -1.24344943582428        0.706684026267272E-07
N     4.96057350657239       -0.626666167821523        0.529083147550630E-04
N     5.00000000000000       -0.122464679914735E-14    0.157877299191583E-01
          50

N     4.96057350657239        0.626666167821521        0.677029885198384    
N     4.84291580564316         1.24344943582427        0.606542077528697E-01
N     4.64888242944126         1.84062276342339        0.826388868007150E-03
N     4.38153340021932         2.40876837050858        0.444798702019812E-05
N     4.04508497187474         2.93892626146237        0.127701289431208E-07
N     3.64484313710706         3.42273552964344        0.227545155928097E-10
N     3.18711994874345         3.85256621387895        0.275772430512812E-13
N     2.67913397489498         4.22163962751008        0.241657740658077E-16
N     2.12889645782536         4.52413526233010        0.159917995080855E-19
N     1.54508497187474         4.75528258147577        0.825370298563171E-23
N    0.936906572928624         4.91143625364344        0.340539643153579E-26
N    0.313952597646568         4.99013364214136        0.114505579182666E-29
N   -0.313952597646567         4.99013364214136        0.318693693088378E-33
N   -0.936906572928623         4.91143625364344        0.318693693088378E-33
N    -1.54508497187474         4.75528258147577        0.114505579182666E-29
N    -2.12889645782536         4.52413526233010        0.340539643153579E-26
N    -2.67913397489498         4.22163962751007        0.825370298563171E-23
N    -3.18711994874345         3.85256621387895        0.159917995080855E-19
N    -3.64484313710706         3.42273552964344        0.241657740658077E-16
N    -4.04508497187474         2.93892626146237        0.275772430512812E-13
N    -4.38153340021932         2.40876837050858        0.227545155928097E-10
N    -4.64888242944126         1.84062276342339        0.127701289431208E-07
N    -4.84291580564315         1.24344943582428        0.444798702019812E-05
N    -4.96057350657239        0.626666167821523        0.826388868007150E-03
N    -5.00000000000000        0.612323399573677E-15    0.606542077528697E-01
N    -4.96057350657239       -0.626666167821522        0.677029885198384    
N    -4.84291580564316        -1.24344943582427        0.606542077528697E-01
N    -4.64888242944126        -1.84062276342339        0.826388868007150E-03
N    -4.38153340021932        -2.40876837050858        0.444798702019812E-05
N    -4.04508497187474        -2.93892626146236        0.127701289431208E-07
N    -3.64484313710706        -3.42273552964344        0.227545155928097E-10
N    -3.18711994874345        -3.85256621387895        0.275772430512812E-13
N    -2.67913397489498        -4.22163962751008        0.241657740658077E-16
N    -2.12889645782536        -4.52413526233010        0.159917995080855E-19
N    -1.54508497187474        -4.75528258147577        0.825370298563171E-23
N   -0.936906572928623        -4.91143625364344        0.340539643153579E-26
N   -0.313952597646566        -4.99013364214136        0.114505579182666E-29
N    0.313952597646564        -4.99013364214136        0.318693693088378E-33
N    0.936906572928621        -4.91143625364344        0.318693693088378E-33
N     1.54508497187474        -4.75528258147577        0.114505579182666E-29
N     2.12889645782536        -4.52413526233010        0.340539643153579E-26
N     2.67913397489498        -4.22163962751008        0.825370298563171E-23
N     3.18711994874345        -3.85256621387895        0.159917995080855E-19
N     3.64484313710706        -3.42273552964344        0.241657740658077E-16
N     4.04508497187474        -2.93892626146237        0.275772430512812E-13
N     4.38153340021932        -2.40876837050858        0.227545155928097E-10
N     4.64888242944126        -1.84062276342339        0.127701289431208E-07
N     4.84291580564315        -1.24344943582428        0.444798702019812E-05
N     4.96057350657239       -0.626666167821523        0.826388868007150E-03
N     5.00000000000000       -0.122464679914735E-14    0.606542077528697E-01
          50

N     4.96057350657239        0.626666167821521        0.536906201484103    
N     4.84291580564316         1.24344943582427        0.127479210190498    
N     4.64888242944126         1.84062276342339        0.401813471078811E-02
N     4.38153340021932         2.40876837050858        0.492329169529538E-04
N     4.04508497187474         2.93892626146237        0.320146445298912E-06
N     3.64484313710706         3.42273552964344        0.128972406604379E-08
N     3.18711994874345         3.85256621387895        0.353340854863482E-11
N     2.67913397489498         4.22163962751008        0.700736853289095E-14
N     2.12889645782536         4.52413526233010        0.105195252527477E-16
N     1.54508497187474         4.75528258147577        0.123617884784358E-19
N    0.936906572928624         4.91143625364344        0.116711015782449E-22
N    0.313952597646568         4.99013364214136        0.903828513553315E-26
N   -0.313952597646567         4.99013364214136        0.584185229242373E-29
N   -0.936906572928623         4.91143625364344        0.584185229242373E-29
N    -1.54508497187474         4.75528258147577        0.903828513553315E-26
N    -2.12889645782536         4.52413526233010        0.116711015782449E-22
N    -2.67913397489498         4.22163962751007        0.123617884784358E-19
N    -3.18711994874345         3.85256621387895        0.105195252527477E-16
N    -3.64484313710706         3.42273552964344        0.700736853289095E-14
N    -4.04508497187474         2.93892626146237        0.353340854863482E-11
N    -4.38153340021932         2.40876837050858        0.128972406604379E-08
N    -4.64888242944126         1.84062276342339        0.320146445298912E-06
N    -4.84291580564315         1.24344943582428        0.492329169529538E-04
N    -4.96057350657239        0.626666167821523        0.401813471078811E-02
N    -5.00000000000000        0.612323399573677E-15    0.127479210190498    
N    -4.96057350657239       -0.626666167821522        0.536906201484103    
N    -4.84291580564316        -1.24344943582427        0.127479210190498    
N    -4.64888242944126        -1.84062276342339        0.401813471078811E-02
N    -4.38153340021932        -2.40876837050858        0.492329169529538E-04
N    -4.04508497187474        -2.93892626146236        0.320146445298912E-06
N    -3.64484313710706        -3.42273552964344        0.128972406604379E-08
N    -3.18711994874345        -3.85256621387895        0.353340854863482E-11
N    -2.67913397489498        -4.22163962751008        0.700736853289095E-14
N    -2.12889645782536        -4.52413526233010        0.105195252527477E-16
N    -1.54508497187474        -4.75528258147577        0.123617884784358E-19
N   -0.936906572928623        -4.91143625364344        0.116711015782449E-22
N   -0.313952597646566        -4.99013364214136        0.903828513553315E-26
N    0.313952597646564        -4.99013364214136        0.584185229242373E-29
N    0.936906572928621        -4.91143625364344        0.584185229242373E-29
N     1.54508497187474        -4.75528258147577        0.903828513553315E-26
N     2.12889645782536        -4.52413526233010        0.116711015782449E-22
N     2.67913397489498        -4.22163962751008        0.123617884784358E-19
N     3.18711994874345        -3.85256621387895        0.105195252527477E-16
N     3.64484313710706        -3.42273552964344        0.700736853289095E-14
N     4.04508497187474        -2.93892626146237        0.353340854863482E-11
N     4.38153340021932        -2.40876837050858        0.128972406604379E-08
N     4.64888242944126        -1.84062276342339        0.320146445298912E-06
N     4.84291580564315        -1.24344943582428        0.492329169529538E-04
N     4.96057350657239       -0.626666167821523        0.401813471078811E-02
N     5.00000000000000       -0.122464679914735E-14    0.127479210190498    
          50

N     4.96057350657239        0.626666167821521        0.364321743196108    
N     4.84291580564316         1.24344943582427        0.205574194534870    
N     4.64888242944126         1.84062276342339        0.119961311812246E-01
N     4.38153340021932         2.40876837050858        0.265680769819823E-03
N     4.04508497187474         2.93892626146237        0.309947774179123E-05
N     3.64484313710706         3.42273552964344        0.223286808612732E-07
N     3.18711994874345         3.85256621387895        0.109221079335304E-09
N     2.67913397489498         4.22163962751008        0.386472419592753E-12
N     2.12889645782536         4.52413526233010        0.103507998297546E-14
N     1.54508497187474         4.75528258147577        0.217093601058992E-17
N    0.936906572928624         4.91143625364344        0.366128180751611E-20
N    0.313952597646568         4.99013364214136        0.507133135302563E-23
N   -0.313952597646567         4.99013364214136        0.587549015022150E-26
N   -0.936906572928623         4.91143625364344        0.587549015022150E-26
N    -1.54508497187474         4.75528258147577        0.507133135302563E-23
N    -2.12889645782536         4.52413526233010        0.366128180751611E-20
N    -2.67913397489498         4.22163962751007        0.217093601058992E-17
N    -3.18711994874345         3.85256621387895        0.103507998297546E-14
N    -3.64484313710706         3.42273552964344        0.386472419592753E-12
N    -4.04508497187474         2.93892626146237        0.109221079335304E-09
N    -4.38153340021932         2.40876837050858        0.223286808612732E-07
N    -4.64888242944126         1.84062276342339        0.309947774179123E-05
N    -4.84291580564315         1.24344943582428        0.265680769819823E-03
N    -4.96057350657239        0.626666167821523        0.119961311812246E-01
N    -5.00000000000000        0.612323399573677E-15    0.205574194534870    
N    -4.96057350657239       -0.626666167821522        0.364321743196108    
N    -4.84291580564316        -1.24344943582427        0.205574194534870    
N    -4.64888242944126        -1.84062276342339        0.119961311812246E-01
N    -4.38153340021932        -2.40876837050858        0.265680769819823E-03
N    -4.04508497187474        -2.93892626146236        0.309947774179123E-05
N    -3.64484313710706        -3.42273552964344        0.223286808612732E-07
N    -3.18711994874345        -3.85256621387895        0.109221079335304E-09
N    -2.67913397489498        -4.22163962751008        0.386472419592753E-12
N    -2.12889645782536        -4.52413526233010        0.103507998297546E-14
N    -1.54508497187474        -4.75528258147577        0.217093601058992E-17
N   -0.936906572928623        -4.91143625364344        0.366128180751611E-20
N   -0.313952597646566        -4.99013364214136        0.507133135302563E-23
N    0.313952597646564        -4.99013364214136        0.587549015022150E-26
N    0.936906572928621        -4.91143625364344        0.587549015022150E-26
N     1.54508497187474        -4.75528258147577        0.507133135302563E-23
N     2.12889645782536        -4.52413526233010        0.366128180751611E-20
N     2.67913397489498        -4.22163962751008        0.217093601058992E-17
N     3.18711994874345        -3.85256621387895        0.103507998297546E-14
N     3.64484313710706        -3.42273552964344        0.386472419592753E-12
N     4.04508497187474        -2.93892626146237        0.109221079335304E-09
N     4.38153340021932        -2.40876837050858        0.223286808612732E-07
N     4.64888242944126        -1.84062276342339        0.309947774179123E-05
N     4.84291580564315        -1.24344943582428        0.265680769819823E-03
N     4.96057350657239       -0.626666167821523        0.119961311812246E-01
N     5.00000000000000       -0.122464679914735E-14    0.205574194534870    
          50

N     4.96057350657239        0.626666167821521        0.179112634352077    
N     4.84291580564316         1.24344943582427        0.282267215050785    
N     4.64888242944126         1.84062276342339        0.271965782987663E-01
N     4.38153340021932         2.40876837050858        0.961943152041009E-03
N     4.04508497187474         2.93892626146237        0.177435429817238E-04
N     3.64484313710706         3.42273552964344        0.201224769723425E-06
N     3.18711994874345         3.85256621387895        0.154600076538211E-08
N     2.67913397489498         4.22163962751008        0.858137921021821E-11
N     2.12889645782536         4.52413526233010        0.360281885688286E-13
N     1.54508497187474         4.75528258147577        0.118413406503899E-15
N    0.936906572928624         4.91143625364344        0.312931369503556E-18
N    0.313952597646568         4.99013364214136        0.679327301580645E-21
N   -0.313952597646567         4.99013364214136        0.123468715606622E-23
N   -0.936906572928623         4.91143625364344        0.123468715606622E-23
N    -1.54508497187474         4.75528258147577        0.679327301580645E-21
N    -2.12889645782536         4.52413526233010        0.312931369503556E-18
N    -2.67913397489498         4.22163962751007        0.118413406503899E-15
N    -3.18711994874345         3.85256621387895        0.360281885688286E-13
N    -3.64484313710706         3.42273552964344        0.858137921021821E-11
N    -4.04508497187474         2.93892626146237        0.154600076538211E-08
N    -4.38153340021932         2.40876837050858        0.201224769723425E-06
N    -4.64888242944126         1.84062276342339        0.177435429817238E-04
N    -4.84291580564315         1.24344943582428        0.961943152041009E-03
N    -4.96057350657239        0.626666167821523        0.271965782987663E-01
N    -5.00000000000000        0.612323399573677E-15    0.282267215050785    
N    -4.96057350657239       -0.626666167821522        0.179112634352077    
N    -4.84291580564316        -1.24344943582427        0.282267215050785    
N    -4.64888242944126        -1.84062276342339        0.271965782987663E-01
N    -4.38153340021932        -2.40876837050858        0.961943152041009E-03
N    -4.04508497187474        -2.93892626146236        0.177435429817238E-04
N    -3.64484313710706        -3.42273552964344        0.201224769723425E-06
N    -3.18711994874345        -3.85256621387895        0.154600076538211E-08
N    -2.67913397489498        -4.22163962751008        0.858137921021821E-11
N    -2.12889645782536        -4.52413526233010        0.360281885688286E-13
N    -1.54508497187474        -4.75528258147577        0.118413406503899E-15
N   -0.936906572928623        -4.91143625364344        0.312931369503556E-18
N   -0.313952597646566        -4.99013364214136        0.679327301580645E-21
N    0.313952597646564        -4.99013364214136        0.123468715606622E-23
N    0.936906572928621        -4.91143625364344        0.123468715606622E-23
N     1.54508497187474        -4.75528258147577        0.679327301580645E-21
N     2.12889645782536        -4.52413526233010        0.312931369503556E-18
N     2.67913397489498        -4.22163962751008        0.118413406503899E-15
N     3.18711994874345        -3.85256621387895        0.360281885688286E-13
N     3.64484313710706        -3.42273552964344        0.858137921021821E-11
N     4.04508497187474        -2.93892626146237        0.154600076538211E-08
N     4.38153340021932        -2.40876837050858        0.201224769723425E-06
N     4.64888242944126        -1.84062276342339        0.177435429817238E-04
N     4.84291580564315        -1.24344943582428        0.961943152041009E-03
N     4.96057350657239       -0.626666167821523        0.271965782987663E-01
N     5.00000000000000       -0.122464679914735E-14    0.282267215050785    
          50

N     4.96057350657239        0.626666167821521        0.200615771346057E-02
N     4.84291580564316         1.24344943582427        0.344784024636053    
N     4.64888242944126         1.84062276342339        0.514455672271742E-01
N     4.38153340021932         2.40876837050858        0.269351455366488E-02
N     4.04508497187474         2.93892626146237        0.726046484220558E-04
N     3.64484313710706         3.42273552964344        0.119664709913782E-05
N     3.18711994874345         3.85256621387895        0.133232130392015E-07
N     2.67913397489498         4.22163962751008        0.106991140815231E-09
N     2.12889645782536         4.52413526233010        0.649202029857693E-12
N     1.54508497187474         4.75528258147577        0.308182397454510E-14
N    0.936906572928624         4.91143625364344        0.117587323548453E-16
N    0.313952597646568         4.99013364214136        0.368478858485311E-19
N   -0.313952597646567         4.99013364214136        0.967370157980764E-22
N   -0.936906572928623         4.91143625364344        0.967370157980764E-22
N    -1.54508497187474         4.75528258147577        0.368478858485311E-19
N    -2.12889645782536         4.52413526233010        0.117587323548453E-16
N    -2.67913397489498         4.22163962751007        0.308182397454510E-14
N    -3.18711994874345         3.85256621387895        0.649202029857693E-12
N    -3.64484313710706         3.42273552964344        0.106991140815231E-09
N    -4.04508497187474         2.93892626146237        0.133232130392015E-07
N    -4.38153340021932         2.40876837050858        0.119664709913782E-05
N    -4.64888242944126         1.84062276342339        0.726046484220558E-04
N    -4.84291580564315         1.24344943582428        0.269351455366488E-02
N    -4.96057350657239        0.626666167821523        0.514455672271742E-01
N    -5.00000000000000        0.612323399573677E-15    0.344784024636053    
N    -4.96057350657239       -0.626666167821522        0.200615771346057E-02
N    -4.84291580564316        -1.24344943582427        0.344784024636053    
N    -4.64888242944126        -1.84062276342339        0.514455672271742E-01
N    -4.38153340021932        -2.40876837050858        0.269351455366488E-02
N    -4.04508497187474        -2.93892626146236        0.726046484220558E-04
N    -3.64484313710706        -3.42273552964344        0.119664709913782E-05
N    -3.18711994874345        -3.85256621387895        0.133232130392015E-07
N    -2.67913397489498        -4.22163962751008        0.106991140815231E-09
N    -2.12889645782536        -4.52413526233010        0.649202029857693E-12
N    -1.54508497187474        -4.75528258147577        0.308182397454510E-14
N   -0.936906572928623        -4.91143625364344        0.117587323548453E-16
N   -0.313952597646566        -4.99013364214136        0.368478858485311E-19
N    0.313952597646564        -4.99013364214136        0.967370157980764E-22
N    0.936906572928621        -4.91143625364344        0.967370157980764E-22
N     1.54508497187474        -4.75528258147577        0.368478858485311E-19
N     2.12889645782536        -4.52413526233010        0.117587323548453E-16
N     2.67913397489498        -4.22163962751008        0.308182397454510E-14
N     3.18711994874345        -3.85256621387895        0.649202029857693E-12
N     3.64484313710706        -3.42273552964344        0.106991140815231E-09
N     4.04508497187474        -2.93892626146237        0.133232130392015E-07
N     4.38153340021932        -2.40876837050858        0.119664709913782E-05
N     4.64888242944126        -1.84062276342339        0.726046484220558E-04
N     4.84291580564315        -1.24344943582428        0.269351455366488E-02
N     4.96057350657239       -0.626666167821523        0.514455672271742E-01
N     5.00000000000000       -0.122464679914735E-14    0.344784024636053    
          50

N     4.96057350657239        0.626666167821521       -0.148028818017913    
N     4.84291580564316         1.24344943582427        0.382148391052196    
N     4.64888242944126         1.84062276342339        0.853349245767581E-01
N     4.38153340021932         2.40876837050858        0.629074293388404E-02
N     4.04508497187474         2.93892626146237        0.234939299811064E-03
N     3.64484313710706         3.42273552964344        0.532887849828475E-05
N     3.18711994874345         3.85256621387895        0.813660829975257E-07
N     2.67913397489498         4.22163962751008        0.894261030107518E-09
N     2.12889645782536         4.52413526233010        0.741691895663801E-11
N     1.54508497187474         4.75528258147577        0.480854842824560E-13
N    0.936906572928624         4.91143625364344        0.250429329188716E-15
N    0.313952597646568         4.99013364214136        0.107076621357286E-17
N   -0.313952597646567         4.99013364214136        0.383780129316766E-20
N   -0.936906572928623         4.91143625364344        0.383780129316766E-20
N    -1.54508497187474         4.75528258147577        0.107076621357286E-17
N    -2.12889645782536         4.52413526233010        0.250429329188716E-15
N    -2.67913397489498         4.22163962751007        0.480854842824560E-13
N    -3.18711994874345         3.85256621387895        0.741691895663801E-11
N    -3.64484313710706         3.42273552964344        0.894261030107518E-09
N    -4.04508497187474         2.93892626146237        0.813660829975257E-07
N    -4.38153340021932         2.40876837050858        0.532887849828475E-05
N    -4.64888242944126         1.84062276342339        0.234939299811064E-03
N    -4.84291580564315         1.24344943582428        0.629074293388404E-02
N    -4.96057350657239        0.626666167821523        0.853349245767581E-01
N    -5.00000000000000        0.612323399573677E-15    0.382148391052196    
N    -4.96057350657239       -0.626666167821522       -0.148028818017913    
N    -4.84291580564316        -1.24344943582427        0.382148391052196    
N    -4.64888242944126        -1.84062276342339        0.853349245767581E-01
N    -4.38153340021932        -2.40876837050858        0.629074293388404E-02
N    -4.04508497187474        -2.93892626146236        0.234939299811064E-03
N    -3.64484313710706        -3.42273552964344        0.532887849828475E-05
N    -3.18711994874345        -3.85256621387895        0.813660829975257E-07
N    -2.67913397489498        -4.22163962751008        0.894261030107518E-09
N    -2.12889645782536        -4.52413526233010        0.741691895663801E-11
N    -1.54508497187474        -4.75528258147577        0.480854842824560E-13
N   -0.936906572928623        -4.91143625364344        0.250429329188716E-15
N   -0.313952597646566        -4.99013364214136        0.107076621357286E-17
N    0.313952597646564        -4.99013364214136        0.383780129316766E-20
N    0.936906572928621        -4.91143625364344        0.383780129316766E-20
N     1.54508497187474        -4.75528258147577        0.107076621357286E-17
N     2.12889645782536        -4.52413526233010        0.250429329188716E-15
N     2.67913397489498        -4.22163962751008        0.480854842824560E-13
N     3.18711994874345        -3.85256621387895        0.741691895663801E-11
N     3.64484313710706        -3.42273552964344        0.894261030107518E-09
N     4.04508497187474        -2.93892626146237        0.813660829975257E-07
N     4.38153340021932        -2.40876837050858        0.532887849828475E-05
N     4.64888242944126        -1.84062276342339        0.234939299811064E-03
N     4.84291580564315        -1.24344943582428        0.629074293388404E-02
N     4.96057350657239       -0.626666167821523        0.853349245767581E-01
N     5.00000000000000       -0.122464679914735E-14    0.382148391052196    
          50

N     4.96057350657239        0.626666167821521       -0.256150531928301    
N     4.84291580564316         1.24344943582427        0.386822158968926    
N     4.64888242944126         1.84062276342339        0.127777402424710    
N     4.38153340021932         2.40876837050858        0.128176286057489E-01
N     4.04508497187474         2.93892626146237        0.638522452811039E-03
N     3.64484313710706         3.42273552964344        0.191623564447067E-04
N     3.18711994874345         3.85256621387895        0.385524744840569E-06
N     2.67913397489498         4.22163962751008        0.556961732860999E-08
N     2.12889645782536         4.52413526233010        0.606286947825945E-10
N     1.54508497187474         4.75528258147577        0.515374705102443E-12
N    0.936906572928624         4.91143625364344        0.351678083698263E-14
N    0.313952597646568         4.99013364214136        0.196921186442628E-16
N   -0.313952597646567         4.99013364214136        0.924853853249537E-19
N   -0.936906572928623         4.91143625364344        0.924853853249537E-19
N    -1.54508497187474         4.75528258147577        0.196921186442628E-16
N    -2.12889645782536         4.52413526233010        0.351678083698263E-14
N    -2.67913397489498         4.22163962751007        0.515374705102443E-12
N    -3.18711994874345         3.85256621387895        0.606286947825945E-10
N    -3.64484313710706         3.42273552964344        0.556961732860999E-08
N    -4.04508497187474         2.93892626146237        0.385524744840569E-06
N    -4.38153340021932         2.40876837050858        0.191623564447067E-04
N    -4.64888242944126         1.84062276342339        0.638522452811039E-03
N    -4.84291580564315         1.24344943582428        0.128176286057489E-01
N    -4.96057350657239        0.626666167821523        0.127777402424710    
N    -5.00000000000000        0.612323399573677E-15    0.386822158968926    
N    -4.96057350657239       -0.626666167821522       -0.256150531928301    
N    -4.84291580564316        -1.24344943582427        0.386822158968926    
N    -4.64888242944126        -1.84062276342339        0.127777402424710    
N    -4.38153340021932        -2.40876837050858        0.128176286057489E-01
N    -4.04508497187474        -2.93892626146236        0.638522452811039E-03
N    -3.64484313710706        -3.42273552964344        0.191623564447067E-04
N    -3.18711994874345        -3.85256621387895        0.385524744840569E-06
N    -2.67913397489498        -4.22163962751008        0.556961732860999E-08
N    -2.12889645782536        -4.52413526233010        0.606286947825945E-10
N    -1.54508497187474        -4.75528258147577        0.515374705102443E-12
N   -0.936906572928623        -4.91143625364344        0.351678083698263E-14
N   -0.313952597646566        -4.99013364214136        0.196921186442628E-16
N    0.313952597646564        -4.99013364214136        0.924853853249537E-19
N    0.936906572928621        -4.91143625364344        0.924853853249537E-19
N     1.54508497187474        -4.75528258147577        0.196921186442628E-16
N     2.12889645782536        -4.52413526233010        0.351678083698263E-14
N     2.67913397489498        -4.22163962751008        0.515374705102443E-12
N     3.18711994874345        -3.85256621387895        0.606286947825945E-10
N     3.64484313710706        -3.42273552964344        0.556961732860999E-08
N     4.04508497187474        -2.93892626146237        0.385524744840569E-06
N     4.38153340021932        -2.40876837050858        0.191623564447067E-04
N     4.64888242944126        -1.84062276342339        0.638522452811039E-03
N     4.84291580564315        -1.24344943582428        0.128176286057489E-01
N     4.96057350657239       -0.626666167821523        0.127777402424710    
N     5.00000000000000       -0.122464679914735E-14    0.386822158968926    
          50

N     4.96057350657239        0.626666167821521       -0.313415190009100    
N     4.84291580564316         1.24344943582427        0.355844323412961    
N     4.64888242944126         1.84062276342339        0.175839241175194    
N     4.38153340021932         2.40876837050858        0.234489251165620E-01
N     4.04508497187474         2.93892626146237        0.151516141294065E-02
N     3.64484313710706         3.42273552964344        0.584133956639370E-04
N     3.18711994874345         3.85256621387895        0.150243202054694E-05
N     2.67913397489498         4.22163962751008        0.276716817410568E-07
N     2.12889645782536         4.52413526233010        0.383347980880468E-09
N     1.54508497187474         4.75528258147577        0.414221263545029E-11
N    0.936906572928624         4.91143625364344        0.358998482823705E-13
N    0.313952597646568         4.99013364214136        0.255165459370429E-15
N   -0.313952597646567         4.99013364214136        0.152215232270925E-17
N   -0.936906572928623         4.91143625364344        0.152215232270925E-17
N    -1.54508497187474         4.75528258147577        0.255165459370429E-15
N    -2.12889645782536         4.52413526233010        0.358998482823705E-13
N    -2.67913397489498         4.22163962751007        0.414221263545029E-11
N    -3.18711994874345         3.85256621387895        0.383347980880468E-09
N    -3.64484313710706         3.42273552964344        0.276716817410568E-07
N    -4.04508497187474         2.93892626146237        0.150243202054694E-05
N    -4.38153340021932         2.40876837050858        0.584133956639370E-04
N    -4.64888242944126         1.84062276342339        0.151516141294065E-02
N    -4.84291580564315         1.24344943582428        0.234489251165620E-01
N    -4.96057350657239        0.626666167821523        0.175839241175194    
N    -5.00000000000000        0.612323399573677E-15    0.355844323412961    
N    -4.96057350657239       -0.626666167821522       -0.313415190009100    
N    -4.84291580564316        -1.24344943582427        0.355844323412961    
N    -4.64888242944126        -1.84062276342339        0.175839241175194    
N    -4.38153340021932        -2.40876837050858        0.234489251165620E-01
N    -4.04508497187474        -2.93892626146236        0.151516141294065E-02
N    -3.64484313710706        -3.42273552964344        0.584133956639370E-04
N    -3.18711994874345        -3.85256621387895        0.150243202054694E-05
N    -2.67913397489498        -4.22163962751008        0.276716817410568E-07
N    -2.12889645782536        -4.52413526233010        0.383347980880468E-09
N    -1.54508497187474        -4.75528258147577        0.414221263545029E-11
N   -0.936906572928623        -4.91143625364344        0.358998482823705E-13
N   -0.313952597646566        -4.99013364214136        0.255165459370429E-15
N    0.313952597646564        -4.99013364214136        0.152215232270925E-17
N    0.936906572928621        -4.91143625364344        0.152215232270925E-17
N     1.54508497187474        -4.75528258147577        0.255165459370429E-15
N     2.12889645782536        -4.52413526233010        0.358998482823705E-13
N     2.67913397489498        -4.22163962751008        0.414221263545029E-11
N     3.18711994874345        -3.85256621387895        0.383347980880468E-09
N     3.64484313710706        -3.42273552964344        0.276716817410568E-07
N     4.04508497187474        -2.93892626146237        0.150243202054694E-05
N     4.38153340021932        -2.40876837050858        0.584133956639370E-04
N     4.64888242944126        -1.84062276342339        0.151516141294065E-02
N     4.84291580564315        -1.24344943582428        0.234489251165620E-01
N     4.96057350657239       -0.626666167821523        0.175839241175194    
N     5.00000000000000       -0.122464679914735E-14    0.355844323412961    
          50

N     4.96057350657239        0.626666167821521       -0.317719858761720    
N     4.84291580564316         1.24344943582427        0.291302527108653    
N     4.64888242944126         1.84062276342339        0.224903244725941    
N     4.38153340021932         2.40876837050858        0.392700623741460E-01
N     4.04508497187474         2.93892626146237        0.322293442039813E-02
N     3.64484313710706         3.42273552964344        0.156032306166909E-03
N     3.18711994874345         3.85256621387895        0.501154728360052E-05
N     2.67913397489498         4.22163962751008        0.114894187031968E-06
N     2.12889645782536         4.52413526233010        0.197729053720873E-08
N     1.54508497187474         4.75528258147577        0.265059011281161E-10
N    0.936906572928624         4.91143625364344        0.284726789439819E-12
N    0.313952597646568         4.99013364214136        0.250661901249384E-14
N   -0.313952597646567         4.99013364214136        0.185333002718751E-16
N   -0.936906572928623         4.91143625364344        0.185333002718751E-16
N    -1.54508497187474         4.75528258147577        0.250661901249384E-14
N    -2.12889645782536         4.52413526233010        0.284726789439819E-12
N    -2.67913397489498         4.22163962751007        0.265059011281161E-10
N    -3.18711994874345         3.85256621387895        0.197729053720873E-08
N    -3.64484313710706         3.42273552964344        0.114894187031968E-06
N    -4.04508497187474         2.93892626146237        0.501154728360052E-05
N    -4.38153340021932         2.40876837050858        0.156032306166909E-03
N    -4.64888242944126         1.84062276342339        0.322293442039813E-02
N    -4.84291580564315         1.24344943582428        0.392700623741460E-01
N    -4.96057350657239        0.626666167821523        0.224903244725941    
N    -5.00000000000000        0.612323399573677E-15    0.291302527108653    
N    -4.96057350657239       -0.626666167821522       -0.317719858761720    
N    -4.84291580564316        -1.24344943582427        0.291302527108653    
N    -4.64888242944126        -1.84062276342339        0.224903244725941    
N    -4.38153340021932        -2.40876837050858        0.392700623741460E-01
N    -4.04508497187474        -2.93892626146236        0.322293442039813E-02
N    -3.64484313710706        -3.42273552964344        0.156032306166909E-03
N    -3.18711994874345        -3.85256621387895        0.501154728360052E-05
N    -2.67913397489498        -4.22163962751008        0.114894187031968E-06
N    -2.12889645782536        -4.52413526233010        0.197729053720873E-08
N    -1.54508497187474        -4.75528258147577        0.265059011281161E-10
N   -0.936906572928623        -4.91143625364344        0.284726789439819E-12
N   -0.313952597646566        -4.99013364214136        0.250661901249384E-14
N    0.313952597646564        -4.99013364214136        0.185333002718751E-16
N    0.936906572928621        -4.91143625364344        0.185333002718751E-16
N     1.54508497187474        -4.75528258147577        0.250661901249384E-14
N     2.12889645782536        -4.52413526233010        0.284726789439819E-12
N     2.67913397489498        -4.22163962751008        0.265059011281161E-10
N     3.18711994874345        -3.85256621387895        0.197729053720873E-08
N     3.64484313710706        -3.42273552964344        0.114894187031968E-06
N     4.04508497187474        -2.93892626146237        0.501154728360052E-05
N     4.38153340021932        -2.40876837050858        0.156032306166909E-03
N     4.64888242944126        -1.84062276342339        0.322293442039813E-02
N     4.84291580564315        -1.24344943582428        0.392700623741460E-01
N     4.96057350657239       -0.626666167821523        0.224903244725941    
N     5.00000000000000       -0.122464679914735E-14    0.291302527108653    
          50

N     4.96057350657239        0.626666167821521       -0.273805450342235    
N     4.84291580564316         1.24344943582427        0.200068894477787    
N     4.64888242944126         1.84062276342339        0.269160043695002    
N     4.38153340021932         2.40876837050858        0.610233531092116E-01
N     4.04508497187474         2.93892626146237        0.626136115380641E-02
N     3.64484313710706         3.42273552964344        0.373931820031932E-03
N     3.18711994874345         3.85256621387895        0.147200212111591E-04
N     2.67913397489498         4.22163962751008        0.412109959010355E-06
N     2.12889645782536         4.52413526233010        0.864132199635602E-08
N     1.54508497187474         4.75528258147577        0.140926137291025E-09
N    0.936906572928624         4.91143625364344        0.183974688504503E-11
N    0.313952597646568         4.99013364214136        0.196682740115638E-13
N   -0.313952597646567         4.99013364214136        0.176727073826222E-15
N   -0.936906572928623         4.91143625364344        0.176727073826222E-15
N    -1.54508497187474         4.75528258147577        0.196682740115638E-13
N    -2.12889645782536         4.52413526233010        0.183974688504503E-11
N    -2.67913397489498         4.22163962751007        0.140926137291025E-09
N    -3.18711994874345         3.85256621387895        0.864132199635602E-08
N    -3.64484313710706         3.42273552964344        0.412109959010355E-06
N    -4.04508497187474         2.93892626146237        0.147200212111591E-04
N    -4.38153340021932         2.40876837050858        0.373931820031932E-03
N    -4.64888242944126         1.84062276342339        0.626136115380641E-02
N    -4.84291580564315         1.24344943582428        0.610233531092116E-01
N    -4.96057350657239        0.626666167821523        0.269160043695002    
N    -5.00000000000000        0.612323399573677E-15    0.200068894477787    
N    -4.96057350657239       -0.626666167821522       -0.273805450342235    
N    -4.84291580564316        -1.24344943582427        0.200068894477787    
N    -4.64888242944126        -1.84062276342339        0.269160043695002    
N    -4.38153340021932        -2.40876837050858        0.610233531092116E-01
N    -4.04508497187474        -2.93892626146236        0.626136115380641E-02
N    -3.64484313710706        -3.42273552964344        0.373931820031932E-03
N    -3.18711994874345        -3.85256621387895        0.147200212111591E-04
N    -2.67913397489498        -4.22163962751008        0.412109959010355E-06
N    -2.12889645782536        -4.52413526233010        0.864132199635602E-08
N    -1.54508497187474        -4.75528258147577        0.140926137291025E-09
N   -0.936906572928623        -4.91143625364344        0.183974688504503E-11
N   -0.313952597646566        -4.99013364214136        0.196682740115638E-13
N    0.313952597646564        -4.99013364214136        0.176727073826222E-15
N    0.936906572928621        -4.91143625364344        0.176727073826222E-15
N     1.54508497187474        -4.75528258147577        0.196682740115638E-13
N     2.12889645782536        -4.52413526233010        0.183974688504503E-11
N     2.67913397489498        -4.22163962751008        0.140926137291025E-09
N     3.18711994874345        -3.85256621387895        0.864132199635602E-08
N     3.64484313710706        -3.42273552964344        0.412109959010355E-06
N     4.04508497187474        -2.93892626146237        0.147200212111591E-04
N     4.38153340021932        -2.40876837050858        0.373931820031932E-03
N     4.64888242944126        -1.84062276342339        0.626136115380641E-02
N     4.84291580564315        -1.24344943582428        0.610233531092116E-01
N     4.96057350657239       -0.626666167821523        0.269160043695002    
N     5.00000000000000       -0.122464679914735E-14    0.200068894477787    
          50

N     4.96057350657239        0.626666167821521       -0.192340285849498    
N     4.84291580564316         1.24344943582427        0.928403287670922E-01
N     4.64888242944126         1.84062276342339        0.302368194972625    
N     4.38153340021932         2.40876837050858        0.888405392285552E-01
N     4.04508497187474         2.93892626146237        0.112628145438882E-01
N     3.64484313710706         3.42273552964344        0.818046533689853E-03
N     3.18711994874345         3.85256621387895        0.388767305021194E-04
N     2.67913397489498         4.22163962751008        0.130858967810668E-05
N     2.12889645782536         4.52413526233010        0.329060765858250E-07
N     1.54508497187474         4.75528258147577        0.642482373978821E-09
N    0.936906572928624         4.91143625364344        0.100297635008552E-10
N    0.313952597646568         4.99013364214136        0.128112465225239E-12
N   -0.313952597646567         4.99013364214136        0.137648995485549E-14
N   -0.936906572928623         4.91143625364344        0.137648995485549E-14
N    -1.54508497187474         4.75528258147577        0.128112465225239E-12
N    -2.12889645782536         4.52413526233010        0.100297635008552E-10
N    -2.67913397489498         4.22163962751007        0.642482373978821E-09
N    -3.18711994874345         3.85256621387895        0.329060765858250E-07
N    -3.64484313710706         3.42273552964344        0.130858967810668E-05
N    -4.04508497187474         2.93892626146237        0.388767305021194E-04
N    -4.38153340021932         2.40876837050858        0.818046533689853E-03
N    -4.64888242944126         1.84062276342339        0.112628145438882E-01
N    -4.84291580564315         1.24344943582428        0.888405392285552E-01
N    -4.96057350657239        0.626666167821523        0.302368194972625    
N    -5.00000000000000        0.612323399573677E-15    0.928403287670922E-01
N    -4.96057350657239       -0.626666167821522       -0.192340285849498    
N    -4.84291580564316        -1.24344943582427        0.928403287670922E-01
N    -4.64888242944126        -1.84062276342339        0.302368194972625    
N    -4.38153340021932        -2.40876837050858        0.888405392285552E-01
N    -4.04508497187474        -2.93892626146236        0.112628145438882E-01
N    -3.64484313710706        -3.42273552964344        0.818046533689853E-03
N    -3.18711994874345        -3.85256621387895        0.388767305021194E-04
N    -2.67913397489498        -4.22163962751008        0.130858967810668E-05
N    -2.12889645782536        -4.52413526233010        0.329060765858250E-07
N    -1.54508497187474        -4.75528258147577        0.642482373978821E-09
N   -0.936906572928623        -4.91143625364344        0.100297635008552E-10
N   -0.313952597646566        -4.99013364214136        0.128112465225239E-12
N    0.313952597646564        -4.99013364214136        0.137648995485549E-14
N    0.936906572928621        -4.91143625364344        0.137648995485549E-14
N     1.54508497187474        -4.75528258147577        0.128112465225239E-12
N     2.12889645782536        -4.52413526233010        0.100297635008552E-10
N     2.67913397489498        -4.22163962751008        0.642482373978821E-09
N     3.18711994874345        -3.85256621387895        0.329060765858250E-07
N     3.64484313710706        -3.42273552964344        0.130858967810668E-05
N     4.04508497187474        -2.93892626146237        0.388767305021194E-04
N     4.38153340021932        -2.40876837050858        0.818046533689853E-03
N     4.64888242944126        -1.84062276342339        0.112628145438882E-01
N     4.84291580564315        -1.24344943582428        0.888405392285552E-01
N     4.96057350657239       -0.626666167821523        0.302368194972625    
N     5.00000000000000       -0.122464679914735E-14    0.928403287670922E-01
          50

N     4.96057350657239        0.626666167821521       -0.882323784580632E-01
N     4.84291580564316         1.24344943582427       -0.173747062571264E-01
N     4.64888242944126         1.84062276342339        0.318774599895337    
N     4.38153340021932         2.40876837050858        0.122012398195471    
N     4.04508497187474         2.93892626146237        0.189509929455070E-01
N     3.64484313710706         3.42273552964344        0.165524379835945E-02
N     3.18711994874345         3.85256621387895        0.937991374720014E-04
N     2.67913397489498         4.22163962751008        0.374736625897019E-05
N     2.12889645782536         4.52413526233010        0.111527264920124E-06
N     1.54508497187474         4.75528258147577        0.257238830793560E-08
N    0.936906572928624         4.91143625364344        0.473774280728540E-10
N    0.313952597646568         4.99013364214136        0.713294244396151E-12
N   -0.313952597646567         4.99013364214136        0.904123865498153E-14
N   -0.936906572928623         4.91143625364344        0.904123865498153E-14
N    -1.54508497187474         4.75528258147577        0.713294244396151E-12
N    -2.12889645782536         4.52413526233010        0.473774280728540E-10
N    -2.67913397489498         4.22163962751007        0.257238830793560E-08
N    -3.18711994874345         3.85256621387895        0.111527264920124E-06
N    -3.64484313710706         3.42273552964344        0.374736625897019E-05
N    -4.04508497187474         2.93892626146237        0.937991374720014E-04
N    -4.38153340021932         2.40876837050858        0.165524379835945E-02
N    -4.64888242944126         1.84062276342339        0.189509929455070E-01
N    -4.84291580564315         1.24344943582428        0.122012398195471    
N    -4.96057350657239        0.626666167821523        0.318774599895337    
N    -5.00000000000000        0.612323399573677E-15   -0.173747062571264E-01
N    -4.96057350657239       -0.626666167821522       -0.882323784580632E-01
N    -4.84291580564316        -1.24344943582427       -0.173747062571264E-01
N    -4.64888242944126        -1.84062276342339        0.318774599895337    
N    -4.38153340021932        -2.40876837050858        0.122012398195471    
N    -4.04508497187474        -2.93892626146236        0.189509929455070E-01
N    -3.64484313710706        -3.42273552964344        0.165524379835945E-02
N    -3.18711994874345        -3.85256621387895        0.937991374720014E-04
N    -2.67913397489498        -4.22163962751008        0.374736625897019E-05
N    -2.12889645782536        -4.52413526233010        0.111527264920124E-06
N    -1.54508497187474        -4.75528258147577        0.257238830793560E-08
N   -0.936906572928623        -4.91143625364344        0.473774280728540E-10
N   -0.313952597646566        -4.99013364214136        0.713294244396151E-12
N    0.313952597646564        -4.99013364214136        0.904123865498153E-14
N    0.936906572928621        -4.91143625364344        0.904123865498153E-14
N     1.54508497187474        -4.75528258147577        0.713294244396151E-12
N     2.12889645782536        -4.52413526233010        0.473774280728540E-10
N     2.67913397489498        -4.22163962751008        0.257238830793560E-08
N     3.18711994874345        -3.85256621387895        0.111527264920124E-06
N     3.64484313710706        -3.42273552964344        0.374736625897019E-05
N     4.04508497187474        -2.93892626146237        0.937991374720014E-04
N     4.38153340021932        -2.40876837050858        0.165524379835945E-02
N     4.64888242944126        -1.84062276342339        0.189509929455070E-01
N     4.84291580564315        -1.24344943582428        0.122012398195471    
N     4.96057350657239       -0.626666167821523        0.318774599895337    
N     5.00000000000000       -0.122464679914735E-14   -0.173747062571264E-01
          50

N     4.96057350657239        0.626666167821521        0.215766824440391E-01
N     4.84291580564316         1.24344943582427       -0.117100356938546    
N     4.64888242944126         1.84062276342339        0.314053738953635    
N     4.38153340021932         2.40876837050858        0.158848149017927    
N     4.04508497187474         2.93892626146237        0.300614377572493E-01
N     3.64484313710706         3.42273552964344        0.312922045951552E-02
N     3.18711994874345         3.85256621387895        0.209299854761887E-03
N     2.67913397489498         4.22163962751008        0.981823282338491E-05
N     2.12889645782536         4.52413526233010        0.342024357527127E-06
N     1.54508497187474         4.75528258147577        0.921477566898511E-08
N    0.936906572928624         4.91143625364344        0.197956956049351E-09
N    0.313952597646568         4.99013364214136        0.347272600867255E-11
N   -0.313952597646567         4.99013364214136        0.513383901936336E-13
N   -0.936906572928623         4.91143625364344        0.513383901936336E-13
N    -1.54508497187474         4.75528258147577        0.347272600867255E-11
N    -2.12889645782536         4.52413526233010        0.197956956049351E-09
N    -2.67913397489498         4.22163962751007        0.921477566898511E-08
N    -3.18711994874345         3.85256621387895        0.342024357527127E-06
N    -3.64484313710706         3.42273552964344        0.981823282338491E-05
N    -4.04508497187474         2.93892626146237        0.209299854761887E-03
N    -4.38153340021932         2.40876837050858        0.312922045951552E-02
N    -4.64888242944126         1.84062276342339        0.300614377572493E-01
N    -4.84291580564315         1.24344943582428        0.158848149017927    
N    -4.96057350657239        0.626666167821523        0.314053738953635    
N    -5.00000000000000        0.612323399573677E-15   -0.117100356938546    
N    -4.96057350657239       -0.626666167821522        0.215766824440391E-01
N    -4.84291580564316        -1.24344943582427       -0.117100356938546    
N    -4.64888242944126        -1.84062276342339        0.314053738953635    
N    -4.38153340021932        -2.40876837050858        0.158848149017927    
N    -4.04508497187474        -2.93892626146236        0.300614377572493E-01
N    -3.64484313710706        -3.42273552964344        0.312922045951552E-02
N    -3.18711994874345        -3.85256621387895        0.209299854761887E-03
N    -2.67913397489498        -4.22163962751008        0.981823282338491E-05
N    -2.12889645782536        -4.52413526233010        0.342024357527127E-06
N    -1.54508497187474        -4.75528258147577        0.921477566898511E-08
N   -0.936906572928623        -4.91143625364344        0.197956956049351E-09
N   -0.313952597646566        -4.99013364214136        0.347272600867255E-11
N    0.313952597646564        -4.99013364214136        0.513383901936336E-13
N    0.936906572928621        -4.91143625364344        0.513383901936336E-13
N     1.54508497187474        -4.75528258147577        0.347272600867255E-11
N     2.12889645782536        -4.52413526233010        0.197956956049351E-09
N     2.67913397489498        -4.22163962751008        0.921477566898511E-08
N     3.18711994874345        -3.85256621387895        0.342024357527127E-06
N     3.64484313710706        -3.42273552964344        0.981823282338491E-05
N     4.04508497187474        -2.93892626146237        0.209299854761887E-03
N     4.38153340021932        -2.40876837050858        0.312922045951552E-02
N     4.64888242944126        -1.84062276342339        0.300614377572493E-01
N     4.84291580564315        -1.24344943582428        0.158848149017927    
N     4.96057350657239       -0.626666167821523        0.314053738953635    
N     5.00000000000000       -0.122464679914735E-14   -0.117100356938546    
          50

N     4.96057350657239        0.626666167821521        0.120516185994846    
N     4.84291580564316         1.24344943582427       -0.194298555345535    
N     4.64888242944126         1.84062276342339        0.286113275963888    
N     4.38153340021932         2.40876837050858        0.196669485795472    
N     4.04508497187474         2.93892626146237        0.452255946834240E-01
N     3.64484313710706         3.42273552964344        0.557118508188358E-02
N     3.18711994874345         3.85256621387895        0.436123417717160E-03
N     2.67913397489498         4.22163962751008        0.238051205404021E-04
N     2.12889645782536         4.52413526233010        0.961555537831417E-06
N     1.54508497187474         4.75528258147577        0.299706418021260E-07
N    0.936906572928624         4.91143625364344        0.743696559085589E-09
N    0.313952597646568         4.99013364214136        0.150528848005641E-10
N   -0.313952597646567         4.99013364214136        0.257012780550065E-12
N   -0.936906572928623         4.91143625364344        0.257012780550065E-12
N    -1.54508497187474         4.75528258147577        0.150528848005641E-10
N    -2.12889645782536         4.52413526233010        0.743696559085589E-09
N    -2.67913397489498         4.22163962751007        0.299706418021260E-07
N    -3.18711994874345         3.85256621387895        0.961555537831417E-06
N    -3.64484313710706         3.42273552964344        0.238051205404021E-04
N    -4.04508497187474         2.93892626146237        0.436123417717160E-03
N    -4.38153340021932         2.40876837050858        0.557118508188358E-02
N    -4.64888242944126         1.84062276342339        0.452255946834240E-01
N    -4.84291580564315         1.24344943582428        0.196669485795472    
N    -4.96057350657239        0.626666167821523        0.286113275963888    
N    -5.00000000000000        0.612323399573677E-15   -0.194298555345535    
N    -4.96057350657239       -0.626666167821522        0.120516185994846    
N    -4.84291580564316        -1.24344943582427       -0.194298555345535    
N    -4.64888242944126        -1.84062276342339        0.286113275963888    
N    -4.38153340021932        -2.40876837050858        0.196669485795472    
N    -4.04508497187474        -2.93892626146236        0.452255946834240E-01
N    -3.64484313710706        -3.42273552964344        0.557118508188358E-02
N    -3.18711994874345        -3.85256621387895        0.436123417717160E-03
N    -2.67913397489498        -4.22163962751008        0.238051205404021E-04
N    -2.12889645782536        -4.52413526233010        0.961555537831417E-06
N    -1.54508497187474        -4.75528258147577        0.299706418021260E-07
N   -0.936906572928623        -4.91143625364344        0.743696559085589E-09
N   -0.313952597646566        -4.99013364214136        0.150528848005641E-10
N    0.313952597646564        -4.99013364214136        0.257012780550065E-12
N    0.936906572928621        -4.91143625364344        0.257012780550065E-12
N     1.54508497187474        -4.75528258147577        0.150528848005641E-10
N     2.12889645782536        -4.52413526233010        0.743696559085589E-09
N     2.67913397489498        -4.22163962751008        0.299706418021260E-07
N     3.18711994874345        -3.85256621387895        0.961555537831417E-06
N     3.64484313710706        -3.42273552964344        0.238051205404021E-04
N     4.04508497187474        -2.93892626146237        0.436123417717160E-03
N     4.38153340021932        -2.40876837050858        0.557118508188358E-02
N     4.64888242944126        -1.84062276342339        0.452255946834240E-01
N     4.84291580564315        -1.24344943582428        0.196669485795472    
N     4.96057350657239       -0.626666167821523        0.286113275963888    
N     5.00000000000000       -0.122464679914735E-14   -0.194298555345535    
          50

N     4.96057350657239        0.626666167821521        0.194648473261105    
N     4.84291580564316         1.24344943582427       -0.240057857018415    
N     4.64888242944126         1.84062276342339        0.235627095881120    
N     4.38153340021932         2.40876837050858        0.231966681857601    
N     4.04508497187474         2.93892626146237        0.648278947313694E-01
N     3.64484313710706         3.42273552964344        0.940019658200127E-02
N     3.18711994874345         3.85256621387895        0.855251879374506E-03
N     2.67913397489498         4.22163962751008        0.539029307975975E-04
N     2.12889645782536         4.52413526233010        0.250435950546279E-05
N     1.54508497187474         4.75528258147577        0.895605047157728E-07
N    0.936906572928624         4.91143625364344        0.254549443627720E-08
N    0.313952597646568         4.99013364214136        0.589413213028351E-10
N   -0.313952597646567         4.99013364214136        0.115251500625988E-11
N   -0.936906572928623         4.91143625364344        0.115251500625988E-11
N    -1.54508497187474         4.75528258147577        0.589413213028351E-10
N    -2.12889645782536         4.52413526233010        0.254549443627720E-08
N    -2.67913397489498         4.22163962751007        0.895605047157728E-07
N    -3.18711994874345         3.85256621387895        0.250435950546279E-05
N    -3.64484313710706         3.42273552964344        0.539029307975975E-04
N    -4.04508497187474         2.93892626146237        0.855251879374506E-03
N    -4.38153340021932         2.40876837050858        0.940019658200127E-02
N    -4.64888242944126         1.84062276342339        0.648278947313694E-01
N    -4.84291580564315         1.24344943582428        0.231966681857601    
N    -4.96057350657239        0.626666167821523        0.235627095881120    
N    -5.00000000000000        0.612323399573677E-15   -0.240057857018415    
N    -4.96057350657239       -0.626666167821522        0.194648473261105    
N    -4.84291580564316        -1.24344943582427       -0.240057857018415    
N    -4.64888242944126        -1.84062276342339        0.235627095881120    
N    -4.38153340021932        -2.40876837050858        0.231966681857601    
N    -4.04508497187474        -2.93892626146236        0.648278947313694E-01
N    -3.64484313710706        -3.42273552964344        0.940019658200127E-02
N    -3.18711994874345        -3.85256621387895        0.855251879374506E-03
N    -2.67913397489498        -4.22163962751008        0.539029307975975E-04
N    -2.12889645782536        -4.52413526233010        0.250435950546279E-05
N    -1.54508497187474        -4.75528258147577        0.895605047157728E-07
N   -0.936906572928623        -4.91143625364344        0.254549443627720E-08
N   -0.313952597646566        -4.99013364214136        0.589413213028351E-10
N    0.313952597646564        -4.99013364214136        0.115251500625988E-11
N    0.936906572928621        -4.91143625364344        0.115251500625988E-11
N     1.54508497187474        -4.75528258147577        0.589413213028351E-10
N     2.12889645782536        -4.52413526233010        0.254549443627720E-08
N     2.67913397489498        -4.22163962751008        0.895605047157728E-07
N     3.18711994874345        -3.85256621387895        0.250435950546279E-05
N     3.64484313710706        -3.42273552964344        0.539029307975975E-04
N     4.04508497187474        -2.93892626146237        0.855251879374506E-03
N     4.38153340021932        -2.40876837050858        0.940019658200127E-02
N     4.64888242944126        -1.84062276342339        0.648278947313694E-01
N     4.84291580564315        -1.24344943582428        0.231966681857601    
N     4.96057350657239       -0.626666167821523        0.235627095881120    
N     5.00000000000000       -0.122464679914735E-14   -0.240057857018415    
          50

N     4.96057350657239        0.626666167821521        0.234476483647303    
N     4.84291580564316         1.24344943582427       -0.249822056481638    
N     4.64888242944126         1.84062276342339        0.166193341825517    
N     4.38153340021932         2.40876837050858        0.260719575280268    
N     4.04508497187474         2.93892626146237        0.888534207646816E-01
N     3.64484313710706         3.42273552964344        0.151078797855619E-01
N     3.18711994874345         3.85256621387895        0.158840446421056E-02
N     2.67913397489498         4.22163962751008        0.114841362961702E-03
N     2.12889645782536         4.52413526233010        0.609465056094969E-05
N     1.54508497187474         4.75528258147577        0.248284779116235E-06
N    0.936906572928624         4.91143625364344        0.802378401243714E-08
N    0.313952597646568         4.99013364214136        0.210971507037976E-09
N   -0.313952597646567         4.99013364214136        0.468968975637080E-11
N   -0.936906572928623         4.91143625364344        0.468968975637080E-11
N    -1.54508497187474         4.75528258147577        0.210971507037976E-09
N    -2.12889645782536         4.52413526233010        0.802378401243714E-08
N    -2.67913397489498         4.22163962751007        0.248284779116235E-06
N    -3.18711994874345         3.85256621387895        0.609465056094969E-05
N    -3.64484313710706         3.42273552964344        0.114841362961702E-03
N    -4.04508497187474         2.93892626146237        0.158840446421056E-02
N    -4.38153340021932         2.40876837050858        0.151078797855619E-01
N    -4.64888242944126         1.84062276342339        0.888534207646816E-01
N    -4.84291580564315         1.24344943582428        0.260719575280268    
N    -4.96057350657239        0.626666167821523        0.166193341825517    
N    -5.00000000000000        0.612323399573677E-15   -0.249822056481638    
N    -4.96057350657239       -0.626666167821522        0.234476483647303    
N    -4.84291580564316        -1.24344943582427       -0.249822056481638    
N    -4.64888242944126        -1.84062276342339        0.166193341825517    
N    -4.38153340021932        -2.40876837050858        0.260719575280268    
N    -4.04508497187474        -2.93892626146236        0.888534207646816E-01
N    -3.64484313710706        -3.42273552964344        0.151078797855619E-01
N    -3.18711994874345        -3.85256621387895        0.158840446421056E-02
N    -2.67913397489498        -4.22163962751008        0.114841362961702E-03
N    -2.12889645782536        -4.52413526233010        0.609465056094969E-05
N    -1.54508497187474        -4.75528258147577        0.248284779116235E-06
N   -0.936906572928623        -4.91143625364344        0.802378401243714E-08
N   -0.313952597646566        -4.99013364214136        0.210971507037976E-09
N    0.313952597646564        -4.99013364214136        0.468968975637080E-11
N    0.936906572928621        -4.91143625364344        0.468968975637080E-11
N     1.54508497187474        -4.75528258147577        0.210971507037976E-09
N     2.12889645782536        -4.52413526233010        0.802378401243714E-08
N     2.67913397489498        -4.22163962751008        0.248284779116235E-06
N     3.18711994874345        -3.85256621387895        0.609465056094969E-05
N     3.64484313710706        -3.42273552964344        0.114841362961702E-03
N     4.04508497187474        -2.93892626146237        0.158840446421056E-02
N     4.38153340021932        -2.40876837050858        0.151078797855619E-01
N     4.64888242944126        -1.84062276342339        0.888534207646816E-01
N     4.84291580564315        -1.24344943582428        0.260719575280268    
N     4.96057350657239       -0.626666167821523        0.166193341825517    
N     5.00000000000000       -0.122464679914735E-14   -0.249822056481638    
          50

N     4.96057350657239        0.626666167821521        0.236056566900416    
N     4.84291580564316         1.24344943582427       -0.223983809618764    
N     4.64888242944126         1.84062276342339        0.840693294038746E-01
N     4.38153340021932         2.40876837050858        0.278858073495533    
N     4.04508497187474         2.93892626146237        0.116750312852416    
N     3.64484313710706         3.42273552964344        0.232231732394357E-01
N     3.18711994874345         3.85256621387895        0.280837991113624E-02
N     2.67913397489498         4.22163962751008        0.231631850007030E-03
N     2.12889645782536         4.52413526233010        0.139575152242912E-04
N     1.54508497187474         4.75528258147577        0.643685166805997E-06
N    0.936906572928624         4.91143625364344        0.235011553618341E-07
N    0.313952597646568         4.99013364214136        0.697103194253217E-09
N   -0.313952597646567         4.99013364214136        0.175027306510814E-10
N   -0.936906572928623         4.91143625364344        0.175027306510814E-10
N    -1.54508497187474         4.75528258147577        0.697103194253217E-09
N    -2.12889645782536         4.52413526233010        0.235011553618341E-07
N    -2.67913397489498         4.22163962751007        0.643685166805997E-06
N    -3.18711994874345         3.85256621387895        0.139575152242912E-04
N    -3.64484313710706         3.42273552964344        0.231631850007030E-03
N    -4.04508497187474         2.93892626146237        0.280837991113624E-02
N    -4.38153340021932         2.40876837050858        0.232231732394357E-01
N    -4.64888242944126         1.84062276342339        0.116750312852416    
N    -4.84291580564315         1.24344943582428        0.278858073495533    
N    -4.96057350657239        0.626666167821523        0.840693294038746E-01
N    -5.00000000000000        0.612323399573677E-15   -0.223983809618764    
N    -4.96057350657239       -0.626666167821522        0.236056566900416    
N    -4.84291580564316        -1.24344943582427       -0.223983809618764    
N    -4.64888242944126        -1.84062276342339        0.840693294038746E-01
N    -4.38153340021932        -2.40876837050858        0.278858073495533    
N    -4.04508497187474        -2.93892626146236        0.116750312852416    
N    -3.64484313710706        -3.42273552964344        0.232231732394357E-01
N    -3.18711994874345        -3.85256621387895        0.280837991113624E-02
N    -2.67913397489498        -4.22163962751008        0.231631850007030E-03
N    -2.12889645782536        -4.52413526233010        0.139575152242912E-04
N    -1.54508497187474        -4.75528258147577        0.643685166805997E-06
N   -0.936906572928623        -4.91143625364344        0.235011553618341E-07
N   -0.313952597646566        -4.99013364214136        0.697103194253217E-09
N    0.313952597646564        -4.99013364214136        0.175027306510814E-10
N    0.936906572928621        -4.91143625364344        0.175027306510814E-10
N     1.54508497187474        -4.75528258147577        0.697103194253217E-09
N     2.12889645782536        -4.52413526233010        0.235011553618341E-07
N     2.67913397489498        -4.22163962751008        0.643685166805997E-06
N     3.18711994874345        -3.85256621387895        0.139575152242912E-04
N     3.64484313710706        -3.42273552964344        0.231631850007030E-03
N     4.04508497187474        -2.93892626146237        0.280837991113624E-02
N     4.38153340021932        -2.40876837050858        0.232231732394357E-01
N     4.64888242944126        -1.84062276342339        0.116750312852416    
N     4.84291580564315        -1.24344943582428        0.278858073495533    
N     4.96057350657239       -0.626666167821523        0.840693294038746E-01
N     5.00000000000000       -0.122464679914735E-14   -0.223983809618764    
          50

N     4.96057350657239        0.626666167821521        0.201281492343449    
N     4.84291580564316         1.24344943582427       -0.167762804407409    
N     4.64888242944126         1.84062276342339       -0.250079113505790E-02
N     4.38153340021932         2.40876837050858        0.282809726892784    
N     4.04508497187474         2.93892626146237        0.147334561025078    
N     3.64484313710706         3.42273552964344        0.342549401740818E-01
N     3.18711994874345         3.85256621387895        0.474716081362101E-02
N     2.67913397489498         4.22163962751008        0.444564519892222E-03
N     2.12889645782536         4.52413526233010        0.302582409852577E-04
N     1.54508497187474         4.75528258147577        0.157106198372493E-05
N    0.936906572928624         4.91143625364344        0.644379355643015E-07
N    0.313952597646568         4.99013364214136        0.214392573751807E-08
N   -0.313952597646567         4.99013364214136        0.604549515610016E-10
N   -0.936906572928623         4.91143625364344        0.604549515610016E-10
N    -1.54508497187474         4.75528258147577        0.214392573751807E-08
N    -2.12889645782536         4.52413526233010        0.644379355643015E-07
N    -2.67913397489498         4.22163962751007        0.157106198372493E-05
N    -3.18711994874345         3.85256621387895        0.302582409852577E-04
N    -3.64484313710706         3.42273552964344        0.444564519892222E-03
N    -4.04508497187474         2.93892626146237        0.474716081362101E-02
N    -4.38153340021932         2.40876837050858        0.342549401740818E-01
N    -4.64888242944126         1.84062276342339        0.147334561025078    
N    -4.84291580564315         1.24344943582428        0.282809726892784    
N    -4.96057350657239        0.626666167821523       -0.250079113505790E-02
N    -5.00000000000000        0.612323399573677E-15   -0.167762804407409    
N    -4.96057350657239       -0.626666167821522        0.201281492343449    
N    -4.84291580564316        -1.24344943582427       -0.167762804407409    
N    -4.64888242944126        -1.84062276342339       -0.250079113505790E-02
N    -4.38153340021932        -2.40876837050858        0.282809726892784    
N    -4.04508497187474        -2.93892626146236        0.147334561025078    
N    -3.64484313710706        -3.42273552964344        0.342549401740818E-01
N    -3.18711994874345        -3.85256621387895        0.474716081362101E-02
N    -2.67913397489498        -4.22163962751008        0.444564519892222E-03
N    -2.12889645782536        -4.52413526233010        0.302582409852577E-04
N    -1.54508497187474        -4.75528258147577        0.157106198372493E-05
N   -0.936906572928623        -4.91143625364344        0.644379355643015E-07
N   -0.313952597646566        -4.99013364214136        0.214392573751807E-08
N    0.313952597646564        -4.99013364214136        0.604549515610016E-10
N    0.936906572928621        -4.91143625364344        0.604549515610016E-10
N     1.54508497187474        -4.75528258147577        0.214392573751807E-08
N     2.12889645782536        -4.52413526233010        0.644379355643015E-07
N     2.67913397489498        -4.22163962751008        0.157106198372493E-05
N     3.18711994874345        -3.85256621387895        0.302582409852577E-04
N     3.64484313710706        -3.42273552964344        0.444564519892222E-03
N     4.04508497187474        -2.93892626146237        0.474716081362101E-02
N     4.38153340021932        -2.40876837050858        0.342549401740818E-01
N     4.64888242944126        -1.84062276342339        0.147334561025078    
N     4.84291580564315        -1.24344943582428        0.282809726892784    
N     4.96057350657239       -0.626666167821523       -0.250079113505790E-02
N     5.00000000000000       -0.122464679914735E-14   -0.167762804407409    
          50

N     4.96057350657239        0.626666167821521        0.137320679373397    
N     4.84291580564316         1.24344943582427       -0.903934074545120E-01
N     4.64888242944126         1.84062276342339       -0.842859276395531E-01
N     4.38153340021932         2.40876837050858        0.270060715729972    
N     4.04508497187474         2.93892626146237        0.178763985606022    
N     3.64484313710706         3.42273552964344        0.486136231091153E-01
N     3.18711994874345         3.85256621387895        0.769905779915453E-02
N     2.67913397489498         4.22163962751008        0.815404809207850E-03
N     2.12889645782536         4.52413526233010        0.624050665388098E-04
N     1.54508497187474         4.75528258147577        0.363046695956592E-05
N    0.936906572928624         4.91143625364344        0.166445806963171E-06
N    0.313952597646568         4.99013364214136        0.617986556198650E-08
N   -0.313952597646567         4.99013364214136        0.194724152357076E-09
N   -0.936906572928623         4.91143625364344        0.194724152357076E-09
N    -1.54508497187474         4.75528258147577        0.617986556198650E-08
N    -2.12889645782536         4.52413526233010        0.166445806963171E-06
N    -2.67913397489498         4.22163962751007        0.363046695956592E-05
N    -3.18711994874345         3.85256621387895        0.624050665388098E-04
N    -3.64484313710706         3.42273552964344        0.815404809207850E-03
N    -4.04508497187474         2.93892626146237        0.769905779915453E-02
N    -4.38153340021932         2.40876837050858        0.486136231091153E-01
N    -4.64888242944126         1.84062276342339        0.178763985606022    
N    -4.84291580564315         1.24344943582428        0.270060715729972    
N    -4.96057350657239        0.626666167821523       -0.842859276395531E-01
N    -5.00000000000000        0.612323399573677E-15   -0.903934074545120E-01
N    -4.96057350657239       -0.626666167821522        0.137320679373397    
N    -4.84291580564316        -1.24344943582427       -0.903934074545120E-01
N    -4.64888242944126        -1.84062276342339       -0.842859276395531E-01
N    -4.38153340021932        -2.40876837050858        0.270060715729972    
N    -4.04508497187474        -2.93892626146236        0.178763985606022    
N    -3.64484313710706        -3.42273552964344        0.486136231091153E-01
N    -3.18711994874345        -3.85256621387895        0.769905779915453E-02
N    -2.67913397489498        -4.22163962751008        0.815404809207850E-03
N    -2.12889645782536        -4.52413526233010        0.624050665388098E-04
N    -1.54508497187474        -4.75528258147577        0.363046695956592E-05
N   -0.936906572928623        -4.91143625364344        0.166445806963171E-06
N   -0.313952597646566        -4.99013364214136        0.617986556198650E-08
N    0.313952597646564        -4.99013364214136        0.194724152357076E-09
N    0.936906572928621        -4.91143625364344        0.194724152357076E-09
N     1.54508497187474        -4.75528258147577        0.617986556198650E-08
N     2.12889645782536        -4.52413526233010        0.166445806963171E-06
N     2.67913397489498        -4.22163962751008        0.363046695956592E-05
N     3.18711994874345        -3.85256621387895        0.624050665388098E-04
N     3.64484313710706        -3.42273552964344        0.815404809207850E-03
N     4.04508497187474        -2.93892626146237        0.769905779915453E-02
N     4.38153340021932        -2.40876837050858        0.486136231091153E-01
N     4.64888242944126        -1.84062276342339        0.178763985606022    
N     4.84291580564315        -1.24344943582428        0.270060715729972    
N     4.96057350657239       -0.626666167821523       -0.842859276395531E-01
N     5.00000000000000       -0.122464679914735E-14   -0.903934074545120E-01
          50

N     4.96057350657239        0.626666167821521        0.553258467229016E-01
N     4.84291580564316         1.24344943582427       -0.374750494978023E-02
N     4.64888242944126         1.84062276342339       -0.152262171174981    
N     4.38153340021932         2.40876837050858        0.239645423122705    
N     4.04508497187474         2.93892626146237        0.208602383806762    
N     3.64484313710706         3.42273552964344        0.665173193004031E-01
N     3.18711994874345         3.85256621387895        0.120157936839070E-01
N     2.67913397489498         4.22163962751008        0.143446410475001E-02
N     2.12889645782536         4.52413526233010        0.122962952428093E-03
N     1.54508497187474         4.75528258147577        0.798120278763706E-05
N    0.936906572928624         4.91143625364344        0.407205995919869E-06
N    0.313952597646568         4.99013364214136        0.167948870094957E-07
N   -0.313952597646567         4.99013364214136        0.588683749966261E-09
N   -0.936906572928623         4.91143625364344        0.588683749966261E-09
N    -1.54508497187474         4.75528258147577        0.167948870094957E-07
N    -2.12889645782536         4.52413526233010        0.407205995919869E-06
N    -2.67913397489498         4.22163962751007        0.798120278763706E-05
N    -3.18711994874345         3.85256621387895        0.122962952428093E-03
N    -3.64484313710706         3.42273552964344        0.143446410475001E-02
N    -4.04508497187474         2.93892626146237        0.120157936839070E-01
N    -4.38153340021932         2.40876837050858        0.665173193004031E-01
N    -4.64888242944126         1.84062276342339        0.208602383806762    
N    -4.84291580564315         1.24344943582428        0.239645423122705    
N    -4.96057350657239        0.626666167821523       -0.152262171174981    
N    -5.00000000000000        0.612323399573677E-15   -0.374750494978023E-02
N    -4.96057350657239       -0.626666167821522        0.553258467229016E-01
N    -4.84291580564316        -1.24344943582427       -0.374750494978023E-02
N    -4.64888242944126        -1.84062276342339       -0.152262171174981    
N    -4.38153340021932        -2.40876837050858        0.239645423122705    
N    -4.04508497187474        -2.93892626146236        0.208602383806762    
N    -3.64484313710706        -3.42273552964344        0.665173193004031E-01
N    -3.18711994874345        -3.85256621387895        0.120157936839070E-01
N    -2.67913397489498        -4.22163962751008        0.143446410475001E-02
N    -2.12889645782536        -4.52413526233010        0.122962952428093E-03
N    -1.54508497187474        -4.75528258147577        0.798120278763706E-05
N   -0.936906572928623        -4.91143625364344        0.407205995919869E-06
N   -0.313952597646566        -4.99013364214136        0.167948870094957E-07
N    0.313952597646564        -4.99013364214136        0.588683749966261E-09
N    0.936906572928621        -4.91143625364344        0.588683749966261E-09
N     1.54508497187474        -4.75528258147577        0.167948870094957E-07
N     2.12889645782536        -4.52413526233010        0.407205995919869E-06
N     2.67913397489498        -4.22163962751008        0.798120278763706E-05
N     3.18711994874345        -3.85256621387895        0.122962952428093E-03
N     3.64484313710706        -3.42273552964344        0.143446410475001E-02
N     4.04508497187474        -2.93892626146237        0.120157936839070E-01
N     4.38153340021932        -2.40876837050858        0.665173193004031E-01
N     4.64888242944126        -1.84062276342339        0.208602383806762    
N     4.84291580564315        -1.24344943582428        0.239645423122705    
N     4.96057350657239       -0.626666167821523       -0.152262171174981    
N     5.00000000000000       -0.122464679914735E-14   -0.374750494978023E-02
          50

N     4.96057350657239        0.626666167821521       -0.313870069955221E-01
N     4.84291580564316         1.24344943582427        0.794004143375792E-01
N     4.64888242944126         1.84062276342339       -0.198833058423464    
N     4.38153340021932         2.40876837050858        0.192481388210973    
N     4.04508497187474         2.93892626146237        0.233984219571241    
N     3.64484313710706         3.42273552964344        0.878921194649426E-01
N     3.18711994874345         3.85256621387895        0.180904977139770E-01
N     2.67913397489498         4.22163962751008        0.242785352486539E-02
N     2.12889645782536         4.52413526233010        0.232315249141659E-03
N     1.54508497187474         4.75528258147577        0.167610070287201E-04
N    0.936906572928624         4.91143625364344        0.947909019047085E-06
N    0.313952597646568         4.99013364214136        0.432527402372989E-07
N   -0.313952597646567         4.99013364214136        0.167971677183619E-08
N   -0.936906572928623         4.91143625364344        0.167971677183619E-08
N    -1.54508497187474         4.75528258147577        0.432527402372989E-07
N    -2.12889645782536         4.52413526233010        0.947909019047085E-06
N    -2.67913397489498         4.22163962751007        0.167610070287201E-04
N    -3.18711994874345         3.85256621387895        0.232315249141659E-03
N    -3.64484313710706         3.42273552964344        0.242785352486539E-02
N    -4.04508497187474         2.93892626146237        0.180904977139770E-01
N    -4.38153340021932         2.40876837050858        0.878921194649426E-01
N    -4.64888242944126         1.84062276342339        0.233984219571241    
N    -4.84291580564315         1.24344943582428        0.192481388210973    
N    -4.96057350657239        0.626666167821523       -0.198833058423464    
N    -5.00000000000000        0.612323399573677E-15    0.794004143375792E-01
N    -4.96057350657239       -0.626666167821522       -0.313870069955221E-01
N    -4.84291580564316        -1.24344943582427        0.794004143375792E-01
N    -4.64888242944126        -1.84062276342339       -0.198833058423464    
N    -4.38153340021932        -2.40876837050858        0.192481388210973    
N    -4.04508497187474        -2.93892626146236        0.233984219571241    
N    -3.64484313710706        -3.42273552964344        0.878921194649426E-01
N    -3.18711994874345        -3.85256621387895        0.180904977139770E-01
N    -2.67913397489498        -4.22163962751008        0.242785352486539E-02
N    -2.12889645782536        -4.52413526233010        0.232315249141659E-03
N    -1.54508497187474        -4.75528258147577        0.167610070287201E-04
N   -0.936906572928623        -4.91143625364344        0.947909019047085E-06
N   -0.313952597646566        -4.99013364214136        0.432527402372989E-07
N    0.313952597646564        -4.99013364214136        0.167971677183619E-08
N    0.936906572928621        -4.91143625364344        0.167971677183619E-08
N     1.54508497187474        -4.75528258147577        0.432527402372989E-07
N     2.12889645782536        -4.52413526233010        0.947909019047085E-06
N     2.67913397489498        -4.22163962751008        0.167610070287201E-04
N     3.18711994874345        -3.85256621387895        0.232315249141659E-03
N     3.64484313710706        -3.42273552964344        0.242785352486539E-02
N     4.04508497187474        -2.93892626146237        0.180904977139770E-01
N     4.38153340021932        -2.40876837050858        0.878921194649426E-01
N     4.64888242944126        -1.84062276342339        0.233984219571241    
N     4.84291580564315        -1.24344943582428        0.192481388210973    
N     4.96057350657239       -0.626666167821523       -0.198833058423464    
N     5.00000000000000       -0.122464679914735E-14    0.794004143375792E-01
          50

N     4.96057350657239        0.626666167821521       -0.109398668564408    
N     4.84291580564316         1.24344943582427        0.147208877106497    
N     4.64888242944126         1.84062276342339       -0.218897844276492    
N     4.38153340021932         2.40876837050858        0.131481663262409    
N     4.04508497187474         2.93892626146237        0.251875936246996    
N     3.64484313710706         3.42273552964344        0.112280516819351    
N     3.18711994874345         3.85256621387895        0.263282525394936E-01
N     2.67913397489498         4.22163962751008        0.396380653543621E-02
N     2.12889645782536         4.52413526233010        0.422163166675121E-03
N     1.54508497187474         4.75528258147577        0.337443663677873E-04
N    0.936906572928624         4.91143625364344        0.210794702412179E-05
N    0.313952597646568         4.99013364214136        0.106023020158814E-06
N   -0.313952597646567         4.99013364214136        0.454542585619169E-08
N   -0.936906572928623         4.91143625364344        0.454542585619169E-08
N    -1.54508497187474         4.75528258147577        0.106023020158814E-06
N    -2.12889645782536         4.52413526233010        0.210794702412179E-05
N    -2.67913397489498         4.22163962751007        0.337443663677873E-04
N    -3.18711994874345         3.85256621387895        0.422163166675121E-03
N    -3.64484313710706         3.42273552964344        0.396380653543621E-02
N    -4.04508497187474         2.93892626146237        0.263282525394936E-01
N    -4.38153340021932         2.40876837050858        0.112280516819351    
N    -4.64888242944126         1.84062276342339        0.251875936246996    
N    -4.84291580564315         1.24344943582428        0.131481663262409    
N    -4.96057350657239        0.626666167821523       -0.218897844276492    
N    -5.00000000000000        0.612323399573677E-15    0.147208877106497    
N    -4.96057350657239       -0.626666167821522       -0.109398668564408    
N    -4.84291580564316        -1.24344943582427        0.147208877106497    
N    -4.64888242944126        -1.84062276342339       -0.218897844276492    
N    -4.38153340021932        -2.40876837050858        0.131481663262409    
N    -4.04508497187474        -2.93892626146236        0.251875936246996    
N    -3.64484313710706        -3.42273552964344        0.112280516819351    
N    -3.18711994874345        -3.85256621387895        0.263282525394936E-01
N    -2.67913397489498        -4.22163962751008        0.396380653543621E-02
N    -2.12889645782536        -4.52413526233010        0.422163166675121E-03
N    -1.54508497187474        -4.75528258147577        0.337443663677873E-04
N   -0.936906572928623        -4.91143625364344        0.210794702412179E-05
N   -0.313952597646566        -4.99013364214136        0.106023020158814E-06
N    0.313952597646564        -4.99013364214136        0.454542585619169E-08
N    0.936906572928621        -4.91143625364344        0.454542585619169E-08
N     1.54508497187474        -4.75528258147577        0.106023020158814E-06
N     2.12889645782536        -4.52413526233010        0.210794702412179E-05
N     2.67913397489498        -4.22163962751008        0.337443663677873E-04
N     3.18711994874345        -3.85256621387895        0.422163166675121E-03
N     3.64484313710706        -3.42273552964344        0.396380653543621E-02
N     4.04508497187474        -2.93892626146237        0.263282525394936E-01
N     4.38153340021932        -2.40876837050858        0.112280516819351    
N     4.64888242944126        -1.84062276342339        0.251875936246996    
N     4.84291580564315        -1.24344943582428        0.131481663262409    
N     4.96057350657239       -0.626666167821523       -0.218897844276492    
N     5.00000000000000       -0.122464679914735E-14    0.147208877106497    
          50

N     4.96057350657239        0.626666167821521       -0.167182958933463    
N     4.84291580564316         1.24344943582427        0.190437101825632    
N     4.64888242944126         1.84062276342339       -0.210606526127763    
N     4.38153340021932         2.40876837050858        0.614040557830382E-01
N     4.04508497187474         2.93892626146237        0.259413869947004    
N     3.64484313710706         3.42273552964344        0.138774307614401    
N     3.18711994874345         3.85256621387895        0.371021962683623E-01
N     2.67913397489498         4.22163962751008        0.625653327601906E-02
N     2.12889645782536         4.52413526233010        0.739857505722917E-03
N     1.54508497187474         4.75528258147577        0.653297220252168E-04
N    0.936906572928624         4.91143625364344        0.449362422118761E-05
N    0.313952597646568         4.99013364214136        0.248313648947204E-06
N   -0.313952597646567         4.99013364214136        0.117144181559792E-07
N   -0.936906572928623         4.91143625364344        0.117144181559792E-07
N    -1.54508497187474         4.75528258147577        0.248313648947204E-06
N    -2.12889645782536         4.52413526233010        0.449362422118761E-05
N    -2.67913397489498         4.22163962751007        0.653297220252168E-04
N    -3.18711994874345         3.85256621387895        0.739857505722917E-03
N    -3.64484313710706         3.42273552964344        0.625653327601906E-02
N    -4.04508497187474         2.93892626146237        0.371021962683623E-01
N    -4.38153340021932         2.40876837050858        0.138774307614401    
N    -4.64888242944126         1.84062276342339        0.259413869947004    
N    -4.84291580564315         1.24344943582428        0.614040557830382E-01
N    -4.96057350657239        0.626666167821523       -0.210606526127763    
N    -5.00000000000000        0.612323399573677E-15    0.190437101825632    
N    -4.96057350657239       -0.626666167821522       -0.167182958933463    
N    -4.84291580564316        -1.24344943582427        0.190437101825632    
N    -4.64888242944126        -1.84062276342339       -0.210606526127763    
N    -4.38153340021932        -2.40876837050858        0.614040557830382E-01
N    -4.04508497187474        -2.93892626146236        0.259413869947004    
N    -3.64484313710706        -3.42273552964344        0.138774307614401    
N    -3.18711994874345        -3.85256621387895        0.371021962683623E-01
N    -2.67913397489498        -4.22163962751008        0.625653327601906E-02
N    -2.12889645782536        -4.52413526233010        0.739857505722917E-03
N    -1.54508497187474        -4.75528258147577        0.653297220252168E-04
N   -0.936906572928623        -4.91143625364344        0.449362422118761E-05
N   -0.313952597646566        -4.99013364214136        0.248313648947204E-06
N    0.313952597646564        -4.99013364214136        0.117144181559792E-07
N    0.936906572928621        -4.91143625364344        0.117144181559792E-07
N     1.54508497187474        -4.75528258147577        0.248313648947204E-06
N     2.12889645782536        -4.52413526233010        0.449362422118761E-05
N     2.67913397489498        -4.22163962751008        0.653297220252168E-04
N     3.18711994874345        -3.85256621387895        0.739857505722917E-03
N     3.64484313710706        -3.42273552964344        0.625653327601906E-02
N     4.04508497187474        -2.93892626146237        0.371021962683623E-01
N     4.38153340021932        -2.40876837050858        0.138774307614401    
N     4.64888242944126        -1.84062276342339        0.259413869947004    
N     4.84291580564315        -1.24344943582428        0.614040557830382E-01
N     4.96057350657239       -0.626666167821523       -0.210606526127763    
N     5.00000000000000       -0.122464679914735E-14    0.190437101825632    
          50

N     4.96057350657239        0.626666167821521       -0.196748611184177    
N     4.84291580564316         1.24344943582427        0.203704257095230    
N     4.64888242944126         1.84062276342339       -0.175682166587582    
N     4.38153340021932         2.40876837050858       -0.115670555425011E-01
N     4.04508497187474         2.93892626146237        0.254283295604394    
N     3.64484313710706         3.42273552964344        0.165988882707551    
N     3.18711994874345         3.85256621387895        0.506962054721507E-01
N     2.67913397489498         4.22163962751008        0.956573098303177E-02
N     2.12889645782536         4.52413526233010        0.125340485281383E-02
N     1.54508497187474         4.75528258147577        0.121953930350306E-03
N    0.936906572928624         4.91143625364344        0.921068433612484E-05
N    0.313952597646568         4.99013364214136        0.557533937052883E-06
N   -0.313952597646567         4.99013364214136        0.288583763959739E-07
N   -0.936906572928623         4.91143625364344        0.288583763959739E-07
N    -1.54508497187474         4.75528258147577        0.557533937052883E-06
N    -2.12889645782536         4.52413526233010        0.921068433612484E-05
N    -2.67913397489498         4.22163962751007        0.121953930350306E-03
N    -3.18711994874345         3.85256621387895        0.125340485281383E-02
N    -3.64484313710706         3.42273552964344        0.956573098303177E-02
N    -4.04508497187474         2.93892626146237        0.506962054721507E-01
N    -4.38153340021932         2.40876837050858        0.165988882707551    
N    -4.64888242944126         1.84062276342339        0.254283295604394    
N    -4.84291580564315         1.24344943582428       -0.115670555425011E-01
N    -4.96057350657239        0.626666167821523       -0.175682166587582    
N    -5.00000000000000        0.612323399573677E-15    0.203704257095230    
N    -4.96057350657239       -0.626666167821522       -0.196748611184177    
N    -4.84291580564316        -1.24344943582427        0.203704257095230    
N    -4.64888242944126        -1.84062276342339       -0.175682166587582    
N    -4.38153340021932        -2.40876837050858       -0.115670555425011E-01
N    -4.04508497187474        -2.93892626146236        0.254283295604394    
N    -3.64484313710706        -3.42273552964344        0.165988882707551    
N    -3.18711994874345        -3.85256621387895        0.506962054721507E-01
N    -2.67913397489498        -4.22163962751008        0.956573098303177E-02
N    -2.12889645782536        -4.52413526233010        0.125340485281383E-02
N    -1.54508497187474        -4.75528258147577        0.121953930350306E-03
N   -0.936906572928623        -4.91143625364344        0.921068433612484E-05
N   -0.313952597646566        -4.99013364214136        0.557533937052883E-06
N    0.313952597646564        -4.99013364214136        0.288583763959739E-07
N    0.936906572928621        -4.91143625364344        0.288583763959739E-07
N     1.54508497187474        -4.75528258147577        0.557533937052883E-06
N     2.12889645782536        -4.52413526233010        0.921068433612484E-05
N     2.67913397489498        -4.22163962751008        0.121953930350306E-03
N     3.18711994874345        -3.85256621387895        0.125340485281383E-02
N     3.64484313710706        -3.42273552964344        0.956573098303177E-02
N     4.04508497187474        -2.93892626146237        0.506962054721507E-01
N     4.38153340021932        -2.40876837050858        0.165988882707551    
N     4.64888242944126        -1.84062276342339        0.254283295604394    
N     4.84291580564315        -1.24344943582428       -0.115670555425011E-01
N     4.96057350657239       -0.626666167821523       -0.175682166587582    
N     5.00000000000000       -0.122464679914735E-14    0.203704257095230    
          50

N     4.96057350657239        0.626666167821521       -0.194697416393770    
N     4.84291580564316         1.24344943582427        0.186163149928916    
N     4.64888242944126         1.84062276342339       -0.119251955700806    
N     4.38153340021932         2.40876837050858       -0.804708077267147E-01
N     4.04508497187474         2.93892626146237        0.235091013799069    
N     3.64484313710706         3.42273552964344        0.192093589366607    
N     3.18711994874345         3.85256621387895        0.672377155609253E-01
N     2.67913397489498         4.22163962751008        0.141897214678603E-01
N     2.12889645782536         4.52413526233010        0.205678067778326E-02
N     1.54508497187474         4.75528258147577        0.220027855714285E-03
N    0.936906572928624         4.91143625364344        0.182011593999703E-04
N    0.313952597646568         4.99013364214136        0.120363157604606E-05
N   -0.313952597646567         4.99013364214136        0.681765538415834E-07
N   -0.936906572928623         4.91143625364344        0.681765538415834E-07
N    -1.54508497187474         4.75528258147577        0.120363157604606E-05
N    -2.12889645782536         4.52413526233010        0.182011593999703E-04
N    -2.67913397489498         4.22163962751007        0.220027855714285E-03
N    -3.18711994874345         3.85256621387895        0.205678067778326E-02
N    -3.64484313710706         3.42273552964344        0.141897214678603E-01
N    -4.04508497187474         2.93892626146237        0.672377155609253E-01
N    -4.38153340021932         2.40876837050858        0.192093589366607    
N    -4.64888242944126         1.84062276342339        0.235091013799069    
N    -4.84291580564315         1.24344943582428       -0.804708077267147E-01
N    -4.96057350657239        0.626666167821523       -0.119251955700806    
N    -5.00000000000000        0.612323399573677E-15    0.186163149928916    
N    -4.96057350657239       -0.626666167821522       -0.194697416393770    
N    -4.84291580564316        -1.24344943582427        0.186163149928916    
N    -4.64888242944126        -1.84062276342339       -0.119251955700806    
N    -4.38153340021932        -2.40876837050858       -0.804708077267147E-01
N    -4.04508497187474        -2.93892626146236        0.235091013799069    
N    -3.64484313710706        -3.42273552964344        0.192093589366607    
N    -3.18711994874345        -3.85256621387895        0.672377155609253E-01
N    -2.67913397489498        -4.22163962751008        0.141897214678603E-01
N    -2.12889645782536        -4.52413526233010        0.205678067778326E-02
N    -1.54508497187474        -4.75528258147577        0.220027855714285E-03
N   -0.936906572928623        -4.91143625364344        0.182011593999703E-04
N   -0.313952597646566        -4.99013364214136        0.120363157604606E-05
N    0.313952597646564        -4.99013364214136        0.681765538415834E-07
N    0.936906572928621        -4.91143625364344        0.681765538415834E-07
N     1.54508497187474        -4.75528258147577        0.120363157604606E-05
N     2.12889645782536        -4.52413526233010        0.182011593999703E-04
N     2.67913397489498        -4.22163962751008        0.220027855714285E-03
N     3.18711994874345        -3.85256621387895        0.205678067778326E-02
N     3.64484313710706        -3.42273552964344        0.141897214678603E-01
N     4.04508497187474        -2.93892626146237        0.672377155609253E-01
N     4.38153340021932        -2.40876837050858        0.192093589366607    
N     4.64888242944126        -1.84062276342339        0.235091013799069    
N     4.84291580564315        -1.24344943582428       -0.804708077267147E-01
N     4.96057350657239       -0.626666167821523       -0.119251955700806    
N     5.00000000000000       -0.122464679914735E-14    0.186163149928916    
          50

N     4.96057350657239        0.626666167821521       -0.162561603991159    
N     4.84291580564316         1.24344943582427        0.141499892230750    
N     4.64888242944126         1.84062276342339       -0.491995521632177E-01
N     4.38153340021932         2.40876837050858       -0.138378887448823    
N     4.04508497187474         2.93892626146237        0.201677521606097    
N     3.64484313710706         3.42273552964344        0.214907725893654    
N     3.18711994874345         3.85256621387895        0.866269767629230E-01
N     2.67913397489498         4.22163962751008        0.204503216936776E-01
N     2.12889645782536         4.52413526233010        0.327492521893687E-02
N     1.54508497187474         4.75528258147577        0.384461874944048E-03
N    0.936906572928624         4.91143625364344        0.347564719307269E-04
N    0.313952597646568         4.99013364214136        0.250495333024951E-05
N   -0.313952597646567         4.99013364214136        0.154901376634881E-06
N   -0.936906572928623         4.91143625364344        0.154901376634881E-06
N    -1.54508497187474         4.75528258147577        0.250495333024951E-05
N    -2.12889645782536         4.52413526233010        0.347564719307269E-04
N    -2.67913397489498         4.22163962751007        0.384461874944048E-03
N    -3.18711994874345         3.85256621387895        0.327492521893687E-02
N    -3.64484313710706         3.42273552964344        0.204503216936776E-01
N    -4.04508497187474         2.93892626146237        0.866269767629230E-01
N    -4.38153340021932         2.40876837050858        0.214907725893654    
N    -4.64888242944126         1.84062276342339        0.201677521606097    
N    -4.84291580564315         1.24344943582428       -0.138378887448823    
N    -4.96057350657239        0.626666167821523       -0.491995521632177E-01
N    -5.00000000000000        0.612323399573677E-15    0.141499892230750    
N    -4.96057350657239       -0.626666167821522       -0.162561603991159    
N    -4.84291580564316        -1.24344943582427        0.141499892230750    
N    -4.64888242944126        -1.84062276342339       -0.491995521632177E-01
N    -4.38153340021932        -2.40876837050858       -0.138378887448823    
N    -4.04508497187474        -2.93892626146236        0.201677521606097    
N    -3.64484313710706        -3.42273552964344        0.214907725893654    
N    -3.18711994874345        -3.85256621387895        0.866269767629230E-01
N    -2.67913397489498        -4.22163962751008        0.204503216936776E-01
N    -2.12889645782536        -4.52413526233010        0.327492521893687E-02
N    -1.54508497187474        -4.75528258147577        0.384461874944048E-03
N   -0.936906572928623        -4.91143625364344        0.347564719307269E-04
N   -0.313952597646566        -4.99013364214136        0.250495333024951E-05
N    0.313952597646564        -4.99013364214136        0.154901376634881E-06
N    0.936906572928621        -4.91143625364344        0.154901376634881E-06
N     1.54508497187474        -4.75528258147577        0.250495333024951E-05
N     2.12889645782536        -4.52413526233010        0.347564719307269E-04
N     2.67913397489498        -4.22163962751008        0.384461874944048E-03
N     3.18711994874345        -3.85256621387895        0.327492521893687E-02
N     3.64484313710706        -3.42273552964344        0.204503216936776E-01
N     4.04508497187474        -2.93892626146237        0.866269767629230E-01
N     4.38153340021932        -2.40876837050858        0.214907725893654    
N     4.64888242944126        -1.84062276342339        0.201677521606097    
N     4.84291580564315        -1.24344943582428       -0.138378887448823    
N     4.96057350657239       -0.626666167821523       -0.491995521632177E-01
N     5.00000000000000       -0.122464679914735E-14    0.141499892230750    
          50

N     4.96057350657239        0.626666167821521       -0.106393590166133    
N     4.84291580564316         1.24344943582427        0.772717114778187E-01
N     4.64888242944126         1.84062276342339        0.248780510862123E-01
N     4.38153340021932         2.40876837050858       -0.179261537351502    
N     4.04508497187474         2.93892626146237        0.155315975552918    
N     3.64484313710706         3.42273552964344        0.232063986011153    
N     3.18711994874345         3.85256621387895        0.108471582390610    
N     2.67913397489498         4.22163962751008        0.286680638068996E-01
N     2.12889645782536         4.52413526233010        0.506751972343784E-02
N     1.54508497187474         4.75528258147577        0.651796695449391E-03
N    0.936906572928624         4.91143625364344        0.642690894174724E-04
N    0.313952597646568         4.99013364214136        0.503725739872078E-05
N   -0.313952597646567         4.99013364214136        0.339343253142740E-06
N   -0.936906572928623         4.91143625364344        0.339343253142740E-06
N    -1.54508497187474         4.75528258147577        0.503725739872078E-05
N    -2.12889645782536         4.52413526233010        0.642690894174724E-04
N    -2.67913397489498         4.22163962751007        0.651796695449391E-03
N    -3.18711994874345         3.85256621387895        0.506751972343784E-02
N    -3.64484313710706         3.42273552964344        0.286680638068996E-01
N    -4.04508497187474         2.93892626146237        0.108471582390610    
N    -4.38153340021932         2.40876837050858        0.232063986011153    
N    -4.64888242944126         1.84062276342339        0.155315975552918    
N    -4.84291580564315         1.24344943582428       -0.179261537351502    
N    -4.96057350657239        0.626666167821523        0.248780510862123E-01
N    -5.00000000000000        0.612323399573677E-15    0.772717114778187E-01
N    -4.96057350657239       -0.626666167821522       -0.106393590166133    
N    -4.84291580564316        -1.24344943582427        0.772717114778187E-01
N    -4.64888242944126        -1.84062276342339        0.248780510862123E-01
N    -4.38153340021932        -2.40876837050858       -0.179261537351502    
N    -4.04508497187474        -2.93892626146236        0.155315975552918    
N    -3.64484313710706        -3.42273552964344        0.232063986011153    
N    -3.18711994874345        -3.85256621387895        0.108471582390610    
N    -2.67913397489498        -4.22163962751008        0.286680638068996E-01
N    -2.12889645782536        -4.52413526233010        0.506751972343784E-02
N    -1.54508497187474        -4.75528258147577        0.651796695449391E-03
N   -0.936906572928623        -4.91143625364344        0.642690894174724E-04
N   -0.313952597646566        -4.99013364214136        0.503725739872078E-05
N    0.313952597646564        -4.99013364214136        0.339343253142740E-06
N    0.936906572928621        -4.91143625364344        0.339343253142740E-06
N     1.54508497187474        -4.75528258147577        0.503725739872078E-05
N     2.12889645782536        -4.52413526233010        0.642690894174724E-04
N     2.67913397489498        -4.22163962751008        0.651796695449391E-03
N     3.18711994874345        -3.85256621387895        0.506751972343784E-02
N     3.64484313710706        -3.42273552964344        0.286680638068996E-01
N     4.04508497187474        -2.93892626146237        0.108471582390610    
N     4.38153340021932        -2.40876837050858        0.232063986011153    
N     4.64888242944126        -1.84062276342339        0.155315975552918    
N     4.84291580564315        -1.24344943582428       -0.179261537351502    
N     4.96057350657239       -0.626666167821523        0.248780510862123E-01
N     5.00000000000000       -0.122464679914735E-14    0.772717114778187E-01
          50

N     4.96057350657239        0.626666167821521       -0.356925843959505E-01
N     4.84291580564316         1.24344943582427        0.369251559727533E-02
N     4.64888242944126         1.84062276342339        0.929662805989150E-01
N     4.38153340021932         2.40876837050858       -0.198792985060801    
N     4.04508497187474         2.93892626146237        0.987545876647160E-01
N     3.64484313710706         3.42273552964344        0.241231558803706    
N     3.18711994874345         3.85256621387895        0.132036954641631    
N     2.67913397489498         4.22163962751008        0.391273142733690E-01
N     2.12889645782536         4.52413526233010        0.763038094228624E-02
N     1.54508497187474         4.75528258147577        0.107386695331189E-02
N    0.936906572928624         4.91143625364344        0.115291568024675E-03
N    0.313952597646568         4.99013364214136        0.980780236992277E-05
N   -0.313952597646567         4.99013364214136        0.718413171400066E-06
N   -0.936906572928623         4.91143625364344        0.718413171400066E-06
N    -1.54508497187474         4.75528258147577        0.980780236992277E-05
N    -2.12889645782536         4.52413526233010        0.115291568024675E-03
N    -2.67913397489498         4.22163962751007        0.107386695331189E-02
N    -3.18711994874345         3.85256621387895        0.763038094228624E-02
N    -3.64484313710706         3.42273552964344        0.391273142733690E-01
N    -4.04508497187474         2.93892626146237        0.132036954641631    
N    -4.38153340021932         2.40876837050858        0.241231558803706    
N    -4.64888242944126         1.84062276342339        0.987545876647160E-01
N    -4.84291580564315         1.24344943582428       -0.198792985060801    
N    -4.96057350657239        0.626666167821523        0.929662805989150E-01
N    -5.00000000000000        0.612323399573677E-15    0.369251559727533E-02
N    -4.96057350657239       -0.626666167821522       -0.356925843959505E-01
N    -4.84291580564316        -1.24344943582427        0.369251559727533E-02
N    -4.64888242944126        -1.84062276342339        0.929662805989150E-01
N    -4.38153340021932        -2.40876837050858       -0.198792985060801    
N    -4.04508497187474        -2.93892626146236        0.987545876647160E-01
N    -3.64484313710706        -3.42273552964344        0.241231558803706    
N    -3.18711994874345        -3.85256621387895        0.132036954641631    
N    -2.67913397489498        -4.22163962751008        0.391273142733690E-01
N    -2.12889645782536        -4.52413526233010        0.763038094228624E-02
N    -1.54508497187474        -4.75528258147577        0.107386695331189E-02
N   -0.936906572928623        -4.91143625364344        0.115291568024675E-03
N   -0.313952597646566        -4.99013364214136        0.980780236992277E-05
N    0.313952597646564        -4.99013364214136        0.718413171400066E-06
N    0.936906572928621        -4.91143625364344        0.718413171400066E-06
N     1.54508497187474        -4.75528258147577        0.980780236992277E-05
N     2.12889645782536        -4.52413526233010        0.115291568024675E-03
N     2.67913397489498        -4.22163962751008        0.107386695331189E-02
N     3.18711994874345        -3.85256621387895        0.763038094228624E-02
N     3.64484313710706        -3.42273552964344        0.391273142733690E-01
N     4.04508497187474        -2.93892626146237        0.132036954641631    
N     4.38153340021932        -2.40876837050858        0.241231558803706    
N     4.64888242944126        -1.84062276342339        0.987545876647160E-01
N     4.84291580564315        -1.24344943582428       -0.198792985060801    
N     4.96057350657239       -0.626666167821523        0.929662805989150E-01
N     5.00000000000000       -0.122464679914735E-14    0.369251559727533E-02
          50

N     4.96057350657239        0.626666167821521        0.381514059704997E-01
N     4.84291580564316         1.24344943582427       -0.679443586880378E-01
N     4.64888242944126         1.84062276342339        0.145999151925203    
N     4.38153340021932         2.40876837050858       -0.194979817171853    
N     4.04508497187474         2.93892626146237        0.360762771660375E-01
N     3.64484313710706         3.42273552964344        0.240380822041073    
N     3.18711994874345         3.85256621387895        0.156224144165369    
N     2.67913397489498         4.22163962751008        0.520321855568752E-01
N     2.12889645782536         4.52413526233010        0.111931249367930E-01
N     1.54508497187474         4.75528258147577        0.172179966148639E-02
N    0.936906572928624         4.91143625364344        0.200970757550719E-03
N    0.313952597646568         4.99013364214136        0.185238612358252E-04
N   -0.313952597646567         4.99013364214136        0.147280301693598E-05
N   -0.936906572928623         4.91143625364344        0.147280301693598E-05
N    -1.54508497187474         4.75528258147577        0.185238612358252E-04
N    -2.12889645782536         4.52413526233010        0.200970757550719E-03
N    -2.67913397489498         4.22163962751007        0.172179966148639E-02
N    -3.18711994874345         3.85256621387895        0.111931249367930E-01
N    -3.64484313710706         3.42273552964344        0.520321855568752E-01
N    -4.04508497187474         2.93892626146237        0.156224144165369    
N    -4.38153340021932         2.40876837050858        0.240380822041073    
N    -4.64888242944126         1.84062276342339        0.360762771660375E-01
N    -4.84291580564315         1.24344943582428       -0.194979817171853    
N    -4.96057350657239        0.626666167821523        0.145999151925203    
N    -5.00000000000000        0.612323399573677E-15   -0.679443586880378E-01
N    -4.96057350657239       -0.626666167821522        0.381514059704997E-01
N    -4.84291580564316        -1.24344943582427       -0.679443586880378E-01
N    -4.64888242944126        -1.84062276342339        0.145999151925203    
N    -4.38153340021932        -2.40876837050858       -0.194979817171853    
N    -4.04508497187474        -2.93892626146236        0.360762771660375E-01
N    -3.64484313710706        -3.42273552964344        0.240380822041073    
N    -3.18711994874345        -3.85256621387895        0.156224144165369    
N    -2.67913397489498        -4.22163962751008        0.520321855568752E-01
N    -2.12889645782536        -4.52413526233010        0.111931249367930E-01
N    -1.54508497187474        -4.75528258147577        0.172179966148639E-02
N   -0.936906572928623        -4.91143625364344        0.200970757550719E-03
N   -0.313952597646566        -4.99013364214136        0.185238612358252E-04
N    0.313952597646564        -4.99013364214136        0.147280301693598E-05
N    0.936906572928621        -4.91143625364344        0.147280301693598E-05
N     1.54508497187474        -4.75528258147577        0.185238612358252E-04
N     2.12889645782536        -4.52413526233010        0.200970757550719E-03
N     2.67913397489498        -4.22163962751008        0.172179966148639E-02
N     3.18711994874345        -3.85256621387895        0.111931249367930E-01
N     3.64484313710706        -3.42273552964344        0.520321855568752E-01
N     4.04508497187474        -2.93892626146237        0.156224144165369    
N     4.38153340021932        -2.40876837050858        0.240380822041073    
N     4.64888242944126        -1.84062276342339        0.360762771660375E-01
N     4.84291580564315        -1.24344943582428       -0.194979817171853    
N     4.96057350657239       -0.626666167821523        0.145999151925203    
N     5.00000000000000       -0.122464679914735E-14   -0.679443586880378E-01
          50

N     4.96057350657239        0.626666167821521        0.103648787789977    
N     4.84291580564316         1.24344943582427       -0.126966245770822    
N     4.64888242944126         1.84062276342339        0.177100781892660    
N     4.38153340021932         2.40876837050858       -0.168514319760508    
N     4.04508497187474         2.93892626146237       -0.276274828270351E-01
N     3.64484313710706         3.42273552964344        0.228062159837907    
N     3.18711994874345         3.85256621387895        0.179585389895433    
N     2.67913397489498         4.22163962751008        0.674557993627185E-01
N     2.12889645782536         4.52413526233010        0.160117002111554E-01
N     1.54508497187474         4.75528258147577        0.268998941600041E-02
N    0.936906572928624         4.91143625364344        0.340911675764064E-03
N    0.313952597646568         4.99013364214136        0.339930012122363E-04
N   -0.313952597646567         4.99013364214136        0.292917052687032E-05
N   -0.936906572928623         4.91143625364344        0.292917052687032E-05
N    -1.54508497187474         4.75528258147577        0.339930012122363E-04
N    -2.12889645782536         4.52413526233010        0.340911675764064E-03
N    -2.67913397489498         4.22163962751007        0.268998941600041E-02
N    -3.18711994874345         3.85256621387895        0.160117002111554E-01
N    -3.64484313710706         3.42273552964344        0.674557993627185E-01
N    -4.04508497187474         2.93892626146237        0.179585389895433    
N    -4.38153340021932         2.40876837050858        0.228062159837907    
N    -4.64888242944126         1.84062276342339       -0.276274828270351E-01
N    -4.84291580564315         1.24344943582428       -0.168514319760508    
N    -4.96057350657239        0.626666167821523        0.177100781892660    
N    -5.00000000000000        0.612323399573677E-15   -0.126966245770822    
N    -4.96057350657239       -0.626666167821522        0.103648787789977    
N    -4.84291580564316        -1.24344943582427       -0.126966245770822    
N    -4.64888242944126        -1.84062276342339        0.177100781892660    
N    -4.38153340021932        -2.40876837050858       -0.168514319760508    
N    -4.04508497187474        -2.93892626146236       -0.276274828270351E-01
N    -3.64484313710706        -3.42273552964344        0.228062159837907    
N    -3.18711994874345        -3.85256621387895        0.179585389895433    
N    -2.67913397489498        -4.22163962751008        0.674557993627185E-01
N    -2.12889645782536        -4.52413526233010        0.160117002111554E-01
N    -1.54508497187474        -4.75528258147577        0.268998941600041E-02
N   -0.936906572928623        -4.91143625364344        0.340911675764064E-03
N   -0.313952597646566        -4.99013364214136        0.339930012122363E-04
N    0.313952597646564        -4.99013364214136        0.292917052687032E-05
N    0.936906572928621        -4.91143625364344        0.292917052687032E-05
N     1.54508497187474        -4.75528258147577        0.339930012122363E-04
N     2.12889645782536        -4.52413526233010        0.340911675764064E-03
N     2.67913397489498        -4.22163962751008        0.268998941600041E-02
N     3.18711994874345        -3.85256621387895        0.160117002111554E-01
N     3.64484313710706        -3.42273552964344        0.674557993627185E-01
N     4.04508497187474        -2.93892626146237        0.179585389895433    
N     4.38153340021932        -2.40876837050858        0.228062159837907    
N     4.64888242944126        -1.84062276342339       -0.276274828270351E-01
N     4.84291580564315        -1.24344943582428       -0.168514319760508    
N     4.96057350657239       -0.626666167821523        0.177100781892660    
N     5.00000000000000       -0.122464679914735E-14   -0.126966245770822    
          50

N     4.96057350657239        0.626666167821521        0.150961065234028    
N     4.84291580564316         1.24344943582427       -0.164890017254649    
N     4.64888242944126         1.84062276342339        0.182523057108283    
N     4.38153340021932         2.40876837050858       -0.122788858674865    
N     4.04508497187474         2.93892626146237       -0.867455665277707E-01
N     3.64484313710706         3.42273552964344        0.203664509158655    
N     3.18711994874345         3.85256621387895        0.200385164763649    
N     2.67913397489498         4.22163962751008        0.852872767490526E-01
N     2.12889645782536         4.52413526233010        0.223545382806255E-01
N     1.54508497187474         4.75528258147577        0.409950770812377E-02
N    0.936906572928624         4.91143625364344        0.563495135767561E-03
N    0.313952597646568         4.99013364214136        0.606999788187826E-04
N   -0.313952597646567         4.99013364214136        0.566095729648825E-05
N   -0.936906572928623         4.91143625364344        0.566095729648825E-05
N    -1.54508497187474         4.75528258147577        0.606999788187826E-04
N    -2.12889645782536         4.52413526233010        0.563495135767561E-03
N    -2.67913397489498         4.22163962751007        0.409950770812377E-02
N    -3.18711994874345         3.85256621387895        0.223545382806255E-01
N    -3.64484313710706         3.42273552964344        0.852872767490526E-01
N    -4.04508497187474         2.93892626146237        0.200385164763649    
N    -4.38153340021932         2.40876837050858        0.203664509158655    
N    -4.64888242944126         1.84062276342339       -0.867455665277707E-01
N    -4.84291580564315         1.24344943582428       -0.122788858674865    
N    -4.96057350657239        0.626666167821523        0.182523057108283    
N    -5.00000000000000        0.612323399573677E-15   -0.164890017254649    
N    -4.96057350657239       -0.626666167821522        0.150961065234028    
N    -4.84291580564316        -1.24344943582427       -0.164890017254649    
N    -4.64888242944126        -1.84062276342339        0.182523057108283    
N    -4.38153340021932        -2.40876837050858       -0.122788858674865    
N    -4.04508497187474        -2.93892626146236       -0.867455665277707E-01
N    -3.64484313710706        -3.42273552964344        0.203664509158655    
N    -3.18711994874345        -3.85256621387895        0.200385164763649    
N    -2.67913397489498        -4.22163962751008        0.852872767490526E-01
N    -2.12889645782536        -4.52413526233010        0.223545382806255E-01
N    -1.54508497187474        -4.75528258147577        0.409950770812377E-02
N   -0.936906572928623        -4.91143625364344        0.563495135767561E-03
N   -0.313952597646566        -4.99013364214136        0.606999788187826E-04
N    0.313952597646564        -4.99013364214136        0.566095729648825E-05
N    0.936906572928621        -4.91143625364344        0.566095729648825E-05
N     1.54508497187474        -4.75528258147577        0.606999788187826E-04
N     2.12889645782536        -4.52413526233010        0.563495135767561E-03
N     2.67913397489498        -4.22163962751008        0.409950770812377E-02
N     3.18711994874345        -3.85256621387895        0.223545382806255E-01
N     3.64484313710706        -3.42273552964344        0.852872767490526E-01
N     4.04508497187474        -2.93892626146237        0.200385164763649    
N     4.38153340021932        -2.40876837050858        0.203664509158655    
N     4.64888242944126        -1.84062276342339       -0.867455665277707E-01
N     4.84291580564315        -1.24344943582428       -0.122788858674865    
N     4.96057350657239       -0.626666167821523        0.182523057108283    
N     5.00000000000000       -0.122464679914735E-14   -0.164890017254649    
          50

N     4.96057350657239        0.626666167821521        0.173348737499021    
N     4.84291580564316         1.24344943582427       -0.176629556393206    
N     4.64888242944126         1.84062276342339        0.162142869015407    
N     4.38153340021932         2.40876837050858       -0.635526210924317E-01
N     4.04508497187474         2.93892626146237       -0.135750353012983    
N     3.64484313710706         3.42273552964344        0.167616261449327    
N     3.18711994874345         3.85256621387895        0.216709918148975    
N     2.67913397489498         4.22163962751008        0.105182551045629    
N     2.12889645782536         4.52413526233010        0.304814693249426E-01
N     1.54508497187474         4.75528258147577        0.610021423584382E-02
N    0.936906572928624         4.91143625364344        0.908621067116980E-03
N    0.313952597646568         4.99013364214136        0.105610474425618E-03
N   -0.313952597646567         4.99013364214136        0.106469874439753E-04
N   -0.936906572928623         4.91143625364344        0.106469874439753E-04
N    -1.54508497187474         4.75528258147577        0.105610474425618E-03
N    -2.12889645782536         4.52413526233010        0.908621067116980E-03
N    -2.67913397489498         4.22163962751007        0.610021423584382E-02
N    -3.18711994874345         3.85256621387895        0.304814693249426E-01
N    -3.64484313710706         3.42273552964344        0.105182551045629    
N    -4.04508497187474         2.93892626146237        0.216709918148975    
N    -4.38153340021932         2.40876837050858        0.167616261449327    
N    -4.64888242944126         1.84062276342339       -0.135750353012983    
N    -4.84291580564315         1.24344943582428       -0.635526210924317E-01
N    -4.96057350657239        0.626666167821523        0.162142869015407    
N    -5.00000000000000        0.612323399573677E-15   -0.176629556393206    
N    -4.96057350657239       -0.626666167821522        0.173348737499021    
N    -4.84291580564316        -1.24344943582427       -0.176629556393206    
N    -4.64888242944126        -1.84062276342339        0.162142869015407    
N    -4.38153340021932        -2.40876837050858       -0.635526210924317E-01
N    -4.04508497187474        -2.93892626146236       -0.135750353012983    
N    -3.64484313710706        -3.42273552964344        0.167616261449327    
N    -3.18711994874345        -3.85256621387895        0.216709918148975    
N    -2.67913397489498        -4.22163962751008        0.105182551045629    
N    -2.12889645782536        -4.52413526233010        0.304814693249426E-01
N    -1.54508497187474        -4.75528258147577        0.610021423584382E-02
N   -0.936906572928623        -4.91143625364344        0.908621067116980E-03
N   -0.313952597646566        -4.99013364214136        0.105610474425618E-03
N    0.313952597646564        -4.99013364214136        0.106469874439753E-04
N    0.936906572928621        -4.91143625364344        0.106469874439753E-04
N     1.54508497187474        -4.75528258147577        0.105610474425618E-03
N     2.12889645782536        -4.52413526233010        0.908621067116980E-03
N     2.67913397489498        -4.22163962751008        0.610021423584382E-02
N     3.18711994874345        -3.85256621387895        0.304814693249426E-01
N     3.64484313710706        -3.42273552964344        0.105182551045629    
N     4.04508497187474        -2.93892626146237        0.216709918148975    
N     4.38153340021932        -2.40876837050858        0.167616261449327    
N     4.64888242944126        -1.84062276342339       -0.135750353012983    
N     4.84291580564315        -1.24344943582428       -0.635526210924317E-01
N     4.96057350657239       -0.626666167821523        0.162142869015407    
N     5.00000000000000       -0.122464679914735E-14   -0.176629556393206    
          50

N     4.96057350657239        0.626666167821521        0.168106547745657    
N     4.84291580564316         1.24344943582427       -0.161169545870610    
N     4.64888242944126         1.84062276342339        0.119445534261628    
N     4.38153340021932         2.40876837050858        0.175778081767452E-02
N     4.04508497187474         2.93892626146237       -0.169845810161548    
N     3.64484313710706         3.42273552964344        0.121493171495567    
N     3.18711994874345         3.85256621387895        0.226623728633327    
N     2.67913397489498         4.22163962751008        0.126526425393221    
N     2.12889645782536         4.52413526233010        0.406152297473149E-01
N     1.54508497187474         4.75528258147577        0.887067270314007E-02
N    0.936906572928624         4.91143625364344        0.143077252832147E-02
N    0.313952597646568         4.99013364214136        0.179252841110224E-03
N   -0.313952597646567         4.99013364214136        0.195137380261127E-04
N   -0.936906572928623         4.91143625364344        0.195137380261127E-04
N    -1.54508497187474         4.75528258147577        0.179252841110224E-03
N    -2.12889645782536         4.52413526233010        0.143077252832147E-02
N    -2.67913397489498         4.22163962751007        0.887067270314007E-02
N    -3.18711994874345         3.85256621387895        0.406152297473149E-01
N    -3.64484313710706         3.42273552964344        0.126526425393221    
N    -4.04508497187474         2.93892626146237        0.226623728633327    
N    -4.38153340021932         2.40876837050858        0.121493171495567    
N    -4.64888242944126         1.84062276342339       -0.169845810161548    
N    -4.84291580564315         1.24344943582428        0.175778081767452E-02
N    -4.96057350657239        0.626666167821523        0.119445534261628    
N    -5.00000000000000        0.612323399573677E-15   -0.161169545870610    
N    -4.96057350657239       -0.626666167821522        0.168106547745657    
N    -4.84291580564316        -1.24344943582427       -0.161169545870610    
N    -4.64888242944126        -1.84062276342339        0.119445534261628    
N    -4.38153340021932        -2.40876837050858        0.175778081767452E-02
N    -4.04508497187474        -2.93892626146236       -0.169845810161548    
N    -3.64484313710706        -3.42273552964344        0.121493171495567    
N    -3.18711994874345        -3.85256621387895        0.226623728633327    
N    -2.67913397489498        -4.22163962751008        0.126526425393221    
N    -2.12889645782536        -4.52413526233010        0.406152297473149E-01
N    -1.54508497187474        -4.75528258147577        0.887067270314007E-02
N   -0.936906572928623        -4.91143625364344        0.143077252832147E-02
N   -0.313952597646566        -4.99013364214136        0.179252841110224E-03
N    0.313952597646564        -4.99013364214136        0.195137380261127E-04
N    0.936906572928621        -4.91143625364344        0.195137380261127E-04
N     1.54508497187474        -4.75528258147577        0.179252841110224E-03
N     2.12889645782536        -4.52413526233010        0.143077252832147E-02
N     2.67913397489498        -4.22163962751008        0.887067270314007E-02
N     3.18711994874345        -3.85256621387895        0.406152297473149E-01
N     3.64484313710706        -3.42273552964344        0.126526425393221    
N     4.04508497187474        -2.93892626146237        0.226623728633327    
N     4.38153340021932        -2.40876837050858        0.121493171495567    
N     4.64888242944126        -1.84062276342339       -0.169845810161548    
N     4.84291580564315        -1.24344943582428        0.175778081767452E-02
N     4.96057350657239       -0.626666167821523        0.119445534261628    
N     5.00000000000000       -0.122464679914735E-14   -0.161169545870610    
          50

N     4.96057350657239        0.626666167821521        0.136858816190187    
N     4.84291580564316         1.24344943582427       -0.121615943983601    
N     4.64888242944126         1.84062276342339        0.609955780999038E-01
N     4.38153340021932         2.40876837050858        0.649345170857289E-01
N     4.04508497187474         2.93892626146237       -0.185578476471211    
N     3.64484313710706         3.42273552964344        0.680053743316582E-01
N     3.18711994874345         3.85256621387895        0.228360210967691    
N     2.67913397489498         4.22163962751008        0.148413913161052    
N     2.12889645782536         4.52413526233010        0.529063384674057E-01
N     1.54508497187474         4.75528258147577        0.126148692851093E-01
N    0.936906572928624         4.91143625364344        0.220219335931225E-02
N    0.313952597646568         4.99013364214136        0.297122702295601E-03
N   -0.313952597646567         4.99013364214136        0.348948995619320E-04
N   -0.936906572928623         4.91143625364344        0.348948995619320E-04
N    -1.54508497187474         4.75528258147577        0.297122702295601E-03
N    -2.12889645782536         4.52413526233010        0.220219335931225E-02
N    -2.67913397489498         4.22163962751007        0.126148692851093E-01
N    -3.18711994874345         3.85256621387895        0.529063384674057E-01
N    -3.64484313710706         3.42273552964344        0.148413913161052    
N    -4.04508497187474         2.93892626146237        0.228360210967691    
N    -4.38153340021932         2.40876837050858        0.680053743316582E-01
N    -4.64888242944126         1.84062276342339       -0.185578476471211    
N    -4.84291580564315         1.24344943582428        0.649345170857289E-01
N    -4.96057350657239        0.626666167821523        0.609955780999038E-01
N    -5.00000000000000        0.612323399573677E-15   -0.121615943983601    
N    -4.96057350657239       -0.626666167821522        0.136858816190187    
N    -4.84291580564316        -1.24344943582427       -0.121615943983601    
N    -4.64888242944126        -1.84062276342339        0.609955780999038E-01
N    -4.38153340021932        -2.40876837050858        0.649345170857289E-01
N    -4.04508497187474        -2.93892626146236       -0.185578476471211    
N    -3.64484313710706        -3.42273552964344        0.680053743316582E-01
N    -3.18711994874345        -3.85256621387895        0.228360210967691    
N    -2.67913397489498        -4.22163962751008        0.148413913161052    
N    -2.12889645782536        -4.52413526233010        0.529063384674057E-01
N    -1.54508497187474        -4.75528258147577        0.126148692851093E-01
N   -0.936906572928623        -4.91143625364344        0.220219335931225E-02
N   -0.313952597646566        -4.99013364214136        0.297122702295601E-03
N    0.313952597646564        -4.99013364214136        0.348948995619320E-04
N    0.936906572928621        -4.91143625364344        0.348948995619320E-04
N     1.54508497187474        -4.75528258147577        0.297122702295601E-03
N     2.12889645782536        -4.52413526233010        0.220219335931225E-02
N     2.67913397489498        -4.22163962751008        0.126148692851093E-01
N     3.18711994874345        -3.85256621387895        0.529063384674057E-01
N     3.64484313710706        -3.42273552964344        0.148413913161052    
N     4.04508497187474        -2.93892626146237        0.228360210967691    
N     4.38153340021932        -2.40876837050858        0.680053743316582E-01
N     4.64888242944126        -1.84062276342339       -0.185578476471211    
N     4.84291580564315        -1.24344943582428        0.649345170857289E-01
N     4.96057350657239       -0.626666167821523        0.609955780999038E-01
N     5.00000000000000       -0.122464679914735E-14   -0.121615943983601    
          50

N     4.96057350657239        0.626666167821521        0.851873417221010E-01
N     4.84291580564316         1.24344943582427       -0.646282682478292E-01
N     4.64888242944126         1.84062276342339       -0.452907529052671E-02
N     4.38153340021932         2.40876837050858        0.118043979959178    
N     4.04508497187474         2.93892626146237       -0.181327343811245    
N     3.64484313710706         3.42273552964344        0.108481165256222E-01
N     3.18711994874345         3.85256621387895        0.220534143321881    
N     2.67913397489498         4.22163962751008        0.169658525018066    
N     2.12889645782536         4.52413526233010        0.673932836712137E-01
N     1.54508497187474         4.75528258147577        0.175547305305685E-01
N    0.936906572928624         4.91143625364344        0.331584910960404E-02
N    0.313952597646568         4.99013364214136        0.481438368015429E-03
N   -0.313952597646567         4.99013364214136        0.609499844024811E-04
N   -0.936906572928623         4.91143625364344        0.609499844024811E-04
N    -1.54508497187474         4.75528258147577        0.481438368015429E-03
N    -2.12889645782536         4.52413526233010        0.331584910960404E-02
N    -2.67913397489498         4.22163962751007        0.175547305305685E-01
N    -3.18711994874345         3.85256621387895        0.673932836712137E-01
N    -3.64484313710706         3.42273552964344        0.169658525018066    
N    -4.04508497187474         2.93892626146237        0.220534143321881    
N    -4.38153340021932         2.40876837050858        0.108481165256222E-01
N    -4.64888242944126         1.84062276342339       -0.181327343811245    
N    -4.84291580564315         1.24344943582428        0.118043979959178    
N    -4.96057350657239        0.626666167821523       -0.452907529052671E-02
N    -5.00000000000000        0.612323399573677E-15   -0.646282682478292E-01
N    -4.96057350657239       -0.626666167821522        0.851873417221010E-01
N    -4.84291580564316        -1.24344943582427       -0.646282682478292E-01
N    -4.64888242944126        -1.84062276342339       -0.452907529052671E-02
N    -4.38153340021932        -2.40876837050858        0.118043979959178    
N    -4.04508497187474        -2.93892626146236       -0.181327343811245    
N    -3.64484313710706        -3.42273552964344        0.108481165256222E-01
N    -3.18711994874345        -3.85256621387895        0.220534143321881    
N    -2.67913397489498        -4.22163962751008        0.169658525018066    
N    -2.12889645782536        -4.52413526233010        0.673932836712137E-01
N    -1.54508497187474        -4.75528258147577        0.175547305305685E-01
N   -0.936906572928623        -4.91143625364344        0.331584910960404E-02
N   -0.313952597646566        -4.99013364214136        0.481438368015429E-03
N    0.313952597646564        -4.99013364214136        0.609499844024811E-04
N    0.936906572928621        -4.91143625364344        0.609499844024811E-04
N     1.54508497187474        -4.75528258147577        0.481438368015429E-03
N     2.12889645782536        -4.52413526233010        0.331584910960404E-02
N     2.67913397489498        -4.22163962751008        0.175547305305685E-01
N     3.18711994874345        -3.85256621387895        0.673932836712137E-01
N     3.64484313710706        -3.42273552964344        0.169658525018066    
N     4.04508497187474        -2.93892626146237        0.220534143321881    
N     4.38153340021932        -2.40876837050858        0.108481165256222E-01
N     4.64888242944126        -1.84062276342339       -0.181327343811245    
N     4.84291580564315        -1.24344943582428        0.118043979959178    
N     4.96057350657239       -0.626666167821523       -0.452907529052671E-02
N     5.00000000000000       -0.122464679914735E-14   -0.646282682478292E-01
          50

N     4.96057350657239        0.626666167821521        0.216659031970947E-01
N     4.84291580564316         1.24344943582427        0.668755209615715E-03
N     4.64888242944126         1.84062276342339       -0.675994537602388E-01
N     4.38153340021932         2.40876837050858        0.154461254314978    
N     4.04508497187474         2.93892626146237       -0.157598569039039    
N     3.64484313710706         3.42273552964344       -0.455828189052454E-01
N     3.18711994874345         3.85256621387895        0.202350418859264    
N     2.67913397489498         4.22163962751008        0.188833606855716    
N     2.12889645782536         4.52413526233010        0.839612334977934E-01
N     1.54508497187474         4.75528258147577        0.239175801402975E-01
N    0.936906572928624         4.91143625364344        0.488770550195392E-02
N    0.313952597646568         4.99013364214136        0.763244441784436E-03
N   -0.313952597646567         4.99013364214136        0.104091284572334E-03
N   -0.936906572928623         4.91143625364344        0.104091284572334E-03
N    -1.54508497187474         4.75528258147577        0.763244441784436E-03
N    -2.12889645782536         4.52413526233010        0.488770550195392E-02
N    -2.67913397489498         4.22163962751007        0.239175801402975E-01
N    -3.18711994874345         3.85256621387895        0.839612334977934E-01
N    -3.64484313710706         3.42273552964344        0.188833606855716    
N    -4.04508497187474         2.93892626146237        0.202350418859264    
N    -4.38153340021932         2.40876837050858       -0.455828189052454E-01
N    -4.64888242944126         1.84062276342339       -0.157598569039039    
N    -4.84291580564315         1.24344943582428        0.154461254314978    
N    -4.96057350657239        0.626666167821523       -0.675994537602388E-01
N    -5.00000000000000        0.612323399573677E-15    0.668755209615715E-03
N    -4.96057350657239       -0.626666167821522        0.216659031970947E-01
N    -4.84291580564316        -1.24344943582427        0.668755209615715E-03
N    -4.64888242944126        -1.84062276342339       -0.675994537602388E-01
N    -4.38153340021932        -2.40876837050858        0.154461254314978    
N    -4.04508497187474        -2.93892626146236       -0.157598569039039    
N    -3.64484313710706        -3.42273552964344       -0.455828189052454E-01
N    -3.18711994874345        -3.85256621387895        0.202350418859264    
N    -2.67913397489498        -4.22163962751008        0.188833606855716    
N    -2.12889645782536        -4.52413526233010        0.839612334977934E-01
N    -1.54508497187474        -4.75528258147577        0.239175801402975E-01
N   -0.936906572928623        -4.91143625364344        0.488770550195392E-02
N   -0.313952597646566        -4.99013364214136        0.763244441784436E-03
N    0.313952597646564        -4.99013364214136        0.104091284572334E-03
N    0.936906572928621        -4.91143625364344        0.104091284572334E-03
N     1.54508497187474        -4.75528258147577        0.763244441784436E-03
N     2.12889645782536        -4.52413526233010        0.488770550195392E-02
N     2.67913397489498        -4.22163962751008        0.239175801402975E-01
N     3.18711994874345        -3.85256621387895        0.839612334977934E-01
N     3.64484313710706        -3.42273552964344        0.188833606855716    
N     4.04508497187474        -2.93892626146237        0.202350418859264    
N     4.38153340021932        -2.40876837050858       -0.455828189052454E-01
N     4.64888242944126        -1.84062276342339       -0.157598569039039    
N     4.84291580564315        -1.24344943582428        0.154461254314978    
N     4.96057350657239       -0.626666167821523       -0.675994537602388E-01
N     5.00000000000000       -0.122464679914735E-14    0.668755209615715E-03
          50

N     4.96057350657239        0.626666167821521       -0.435365893265901E-01
N     4.84291580564316         1.24344943582427        0.641203240360190E-01
N     4.64888242944126         1.84062276342339       -0.119210826987520    
N     4.38153340021932         2.40876837050858        0.169750334717386    
N     4.04508497187474         2.93892626146237       -0.117072213548389    
N     3.64484313710706         3.42273552964344       -0.965916974159920E-01
N     3.18711994874345         3.85256621387895        0.173784127261810    
N     2.67913397489498         4.22163962751008        0.204350032616871    
N     2.12889645782536         4.52413526233010        0.102303705319822    
N     1.54508497187474         4.75528258147577        0.319179941397075E-01
N    0.936906572928624         4.91143625364344        0.705772656681124E-02
N    0.313952597646568         4.99013364214136        0.118481405704620E-02
N   -0.313952597646567         4.99013364214136        0.173973899722615E-03
N   -0.936906572928623         4.91143625364344        0.173973899722615E-03
N    -1.54508497187474         4.75528258147577        0.118481405704620E-02
N    -2.12889645782536         4.52413526233010        0.705772656681124E-02
N    -2.67913397489498         4.22163962751007        0.319179941397075E-01
N    -3.18711994874345         3.85256621387895        0.102303705319822    
N    -3.64484313710706         3.42273552964344        0.204350032616871    
N    -4.04508497187474         2.93892626146237        0.173784127261810    
N    -4.38153340021932         2.40876837050858       -0.965916974159920E-01
N    -4.64888242944126         1.84062276342339       -0.117072213548389    
N    -4.84291580564315         1.24344943582428        0.169750334717386    
N    -4.96057350657239        0.626666167821523       -0.119210826987520    
N    -5.00000000000000        0.612323399573677E-15    0.641203240360190E-01
N    -4.96057350657239       -0.626666167821522       -0.435365893265901E-01
N    -4.84291580564316        -1.24344943582427        0.641203240360190E-01
N    -4.64888242944126        -1.84062276342339       -0.119210826987520    
N    -4.38153340021932        -2.40876837050858        0.169750334717386    
N    -4.04508497187474        -2.93892626146236       -0.117072213548389    
N    -3.64484313710706        -3.42273552964344       -0.965916974159920E-01
N    -3.18711994874345        -3.85256621387895        0.173784127261810    
N    -2.67913397489498        -4.22163962751008        0.204350032616871    
N    -2.12889645782536        -4.52413526233010        0.102303705319822    
N    -1.54508497187474        -4.75528258147577        0.319179941397075E-01
N   -0.936906572928623        -4.91143625364344        0.705772656681124E-02
N   -0.313952597646566        -4.99013364214136        0.118481405704620E-02
N    0.313952597646564        -4.99013364214136        0.173973899722615E-03
N    0.936906572928621        -4.91143625364344        0.173973899722615E-03
N     1.54508497187474        -4.75528258147577        0.118481405704620E-02
N     2.12889645782536        -4.52413526233010        0.705772656681124E-02
N     2.67913397489498        -4.22163962751008        0.319179941397075E-01
N     3.18711994874345        -3.85256621387895        0.102303705319822    
N     3.64484313710706        -3.42273552964344        0.204350032616871    
N     4.04508497187474        -2.93892626146237        0.173784127261810    
N     4.38153340021932        -2.40876837050858       -0.965916974159920E-01
N     4.64888242944126        -1.84062276342339       -0.117072213548389    
N     4.84291580564315        -1.24344943582428        0.169750334717386    
N     4.96057350657239       -0.626666167821523       -0.119210826987520    
N     5.00000000000000       -0.122464679914735E-14    0.641203240360190E-01
          50

N     4.96057350657239        0.626666167821521       -0.100260734133274    
N     4.84291580564316         1.24344943582427        0.116100697810296    
N     4.64888242944126         1.84062276342339       -0.152170812774313    
N     4.38153340021932         2.40876837050858        0.162264382897988    
N     4.04508497187474         2.93892626146237       -0.643785358793061E-01
N     3.64484313710706         3.42273552964344       -0.137662310575265    
N     3.18711994874345         3.85256621387895        0.135704747677307    
N     2.67913397489498         4.22163962751008        0.214569637898271    
N     2.12889645782536         4.52413526233010        0.121892603747482    
N     1.54508497187474         4.75528258147577        0.417340287148391E-01
N    0.936906572928624         4.91143625364344        0.998888711717957E-02
N    0.313952597646568         4.99013364214136        0.180223567356726E-02
N   -0.313952597646567         4.99013364214136        0.284804758591057E-03
N   -0.936906572928623         4.91143625364344        0.284804758591057E-03
N    -1.54508497187474         4.75528258147577        0.180223567356726E-02
N    -2.12889645782536         4.52413526233010        0.998888711717957E-02
N    -2.67913397489498         4.22163962751007        0.417340287148391E-01
N    -3.18711994874345         3.85256621387895        0.121892603747482    
N    -3.64484313710706         3.42273552964344        0.214569637898271    
N    -4.04508497187474         2.93892626146237        0.135704747677307    
N    -4.38153340021932         2.40876837050858       -0.137662310575265    
N    -4.64888242944126         1.84062276342339       -0.643785358793061E-01
N    -4.84291580564315         1.24344943582428        0.162264382897988    
N    -4.96057350657239        0.626666167821523       -0.152170812774313    
N    -5.00000000000000        0.612323399573677E-15    0.116100697810296    
N    -4.96057350657239       -0.626666167821522       -0.100260734133274    
N    -4.84291580564316        -1.24344943582427        0.116100697810296    
N    -4.64888242944126        -1.84062276342339       -0.152170812774313    
N    -4.38153340021932        -2.40876837050858        0.162264382897988    
N    -4.04508497187474        -2.93892626146236       -0.643785358793061E-01
N    -3.64484313710706        -3.42273552964344       -0.137662310575265    
N    -3.18711994874345        -3.85256621387895        0.135704747677307    
N    -2.67913397489498        -4.22163962751008        0.214569637898271    
N    -2.12889645782536        -4.52413526233010        0.121892603747482    
N    -1.54508497187474        -4.75528258147577        0.417340287148391E-01
N   -0.936906572928623        -4.91143625364344        0.998888711717957E-02
N   -0.313952597646566        -4.99013364214136        0.180223567356726E-02
N    0.313952597646564        -4.99013364214136        0.284804758591057E-03
N    0.936906572928621        -4.91143625364344        0.284804758591057E-03
N     1.54508497187474        -4.75528258147577        0.180223567356726E-02
N     2.12889645782536        -4.52413526233010        0.998888711717957E-02
N     2.67913397489498        -4.22163962751008        0.417340287148391E-01
N     3.18711994874345        -3.85256621387895        0.121892603747482    
N     3.64484313710706        -3.42273552964344        0.214569637898271    
N     4.04508497187474        -2.93892626146237        0.135704747677307    
N     4.38153340021932        -2.40876837050858       -0.137662310575265    
N     4.64888242944126        -1.84062276342339       -0.643785358793061E-01
N     4.84291580564315        -1.24344943582428        0.162264382897988    
N     4.96057350657239       -0.626666167821523       -0.152170812774313    
N     5.00000000000000       -0.122464679914735E-14    0.116100697810296    
          50

N     4.96057350657239        0.626666167821521       -0.139919239321999    
N     4.84291580564316         1.24344943582427        0.148958963415396    
N     4.64888242944126         1.84062276342339       -0.162113229834778    
N     4.38153340021932         2.40876837050858        0.133376614578281    
N     4.04508497187474         2.93892626146237       -0.561694236552631E-02
N     3.64484313710706         3.42273552964344       -0.164964544538183    
N     3.18711994874345         3.85256621387895        0.899201947846541E-01
N     2.67913397489498         4.22163962751008        0.217949062689269    
N     2.12889645782536         4.52413526233010        0.141962555540639    
N     1.54508497187474         4.75528258147577        0.534784973628639E-01
N    0.936906572928624         4.91143625364344        0.138634378375630E-01
N    0.313952597646568         4.99013364214136        0.268798926353614E-02
N   -0.313952597646567         4.99013364214136        0.457020927285377E-03
N   -0.936906572928623         4.91143625364344        0.457020927285377E-03
N    -1.54508497187474         4.75528258147577        0.268798926353614E-02
N    -2.12889645782536         4.52413526233010        0.138634378375630E-01
N    -2.67913397489498         4.22163962751007        0.534784973628639E-01
N    -3.18711994874345         3.85256621387895        0.141962555540639    
N    -3.64484313710706         3.42273552964344        0.217949062689269    
N    -4.04508497187474         2.93892626146237        0.899201947846541E-01
N    -4.38153340021932         2.40876837050858       -0.164964544538183    
N    -4.64888242944126         1.84062276342339       -0.561694236552631E-02
N    -4.84291580564315         1.24344943582428        0.133376614578281    
N    -4.96057350657239        0.626666167821523       -0.162113229834778    
N    -5.00000000000000        0.612323399573677E-15    0.148958963415396    
N    -4.96057350657239       -0.626666167821522       -0.139919239321999    
N    -4.84291580564316        -1.24344943582427        0.148958963415396    
N    -4.64888242944126        -1.84062276342339       -0.162113229834778    
N    -4.38153340021932        -2.40876837050858        0.133376614578281    
N    -4.04508497187474        -2.93892626146236       -0.561694236552631E-02
N    -3.64484313710706        -3.42273552964344       -0.164964544538183    
N    -3.18711994874345        -3.85256621387895        0.899201947846541E-01
N    -2.67913397489498        -4.22163962751008        0.217949062689269    
N    -2.12889645782536        -4.52413526233010        0.141962555540639    
N    -1.54508497187474        -4.75528258147577        0.534784973628639E-01
N   -0.936906572928623        -4.91143625364344        0.138634378375630E-01
N   -0.313952597646566        -4.99013364214136        0.268798926353614E-02
N    0.313952597646564        -4.99013364214136        0.457020927285377E-03
N    0.936906572928621        -4.91143625364344        0.457020927285377E-03
N     1.54508497187474        -4.75528258147577        0.268798926353614E-02
N     2.12889645782536        -4.52413526233010        0.138634378375630E-01
N     2.67913397489498        -4.22163962751008        0.534784973628639E-01
N     3.18711994874345        -3.85256621387895        0.141962555540639    
N     3.64484313710706        -3.42273552964344        0.217949062689269    
N     4.04508497187474        -2.93892626146237        0.899201947846541E-01
N     4.38153340021932        -2.40876837050858       -0.164964544538183    
N     4.64888242944126        -1.84062276342339       -0.561694236552631E-02
N     4.84291580564315        -1.24344943582428        0.133376614578281    
N     4.96057350657239       -0.626666167821523       -0.162113229834778    
N     5.00000000000000       -0.122464679914735E-14    0.148958963415396    
          50

N     4.96057350657239        0.626666167821521       -0.156779863989324    
N     4.84291580564316         1.24344943582427        0.158135448652139    
N     4.64888242944126         1.84062276342339       -0.148091362904249    
N     4.38153340021932         2.40876837050858        0.873026231486846E-01
N     4.04508497187474         2.93892626146237        0.523332944012406E-01
N     3.64484313710706         3.42273552964344       -0.175827142786532    
N     3.18711994874345         3.85256621387895        0.391229744252945E-01
N     2.67913397489498         4.22163962751008        0.213203659851040    
N     2.12889645782536         4.52413526233010        0.161515331107120    
N     1.54508497187474         4.75528258147577        0.671668259786953E-01
N    0.936906572928624         4.91143625364344        0.188756849897146E-01
N    0.313952597646568         4.99013364214136        0.393322309207532E-02
N   -0.313952597646567         4.99013364214136        0.719372039439972E-03
N   -0.936906572928623         4.91143625364344        0.719372039439972E-03
N    -1.54508497187474         4.75528258147577        0.393322309207532E-02
N    -2.12889645782536         4.52413526233010        0.188756849897146E-01
N    -2.67913397489498         4.22163962751007        0.671668259786953E-01
N    -3.18711994874345         3.85256621387895        0.161515331107120    
N    -3.64484313710706         3.42273552964344        0.213203659851040    
N    -4.04508497187474         2.93892626146237        0.391229744252945E-01
N    -4.38153340021932         2.40876837050858       -0.175827142786532    
N    -4.64888242944126         1.84062276342339        0.523332944012406E-01
N    -4.84291580564315         1.24344943582428        0.873026231486846E-01
N    -4.96057350657239        0.626666167821523       -0.148091362904249    
N    -5.00000000000000        0.612323399573677E-15    0.158135448652139    
N    -4.96057350657239       -0.626666167821522       -0.156779863989324    
N    -4.84291580564316        -1.24344943582427        0.158135448652139    
N    -4.64888242944126        -1.84062276342339       -0.148091362904249    
N    -4.38153340021932        -2.40876837050858        0.873026231486846E-01
N    -4.04508497187474        -2.93892626146236        0.523332944012406E-01
N    -3.64484313710706        -3.42273552964344       -0.175827142786532    
N    -3.18711994874345        -3.85256621387895        0.391229744252945E-01
N    -2.67913397489498        -4.22163962751008        0.213203659851040    
N    -2.12889645782536        -4.52413526233010        0.161515331107120    
N    -1.54508497187474        -4.75528258147577        0.671668259786953E-01
N   -0.936906572928623        -4.91143625364344        0.188756849897146E-01
N   -0.313952597646566        -4.99013364214136        0.393322309207532E-02
N    0.313952597646564        -4.99013364214136        0.719372039439972E-03
N    0.936906572928621        -4.91143625364344        0.719372039439972E-03
N     1.54508497187474        -4.75528258147577        0.393322309207532E-02
N     2.12889645782536        -4.52413526233010        0.188756849897146E-01
N     2.67913397489498        -4.22163962751008        0.671668259786953E-01
N     3.18711994874345        -3.85256621387895        0.161515331107120    
N     3.64484313710706        -3.42273552964344        0.213203659851040    
N     4.04508497187474        -2.93892626146237        0.391229744252945E-01
N     4.38153340021932        -2.40876837050858       -0.175827142786532    
N     4.64888242944126        -1.84062276342339        0.523332944012406E-01
N     4.84291580564315        -1.24344943582428        0.873026231486846E-01
N     4.96057350657239       -0.626666167821523       -0.148091362904249    
N     5.00000000000000       -0.122464679914735E-14    0.158135448652139    
          50

N     4.96057350657239        0.626666167821521       -0.148779114456945    
N     4.84291580564316         1.24344943582427        0.142786431768440    
N     4.64888242944126         1.84062276342339       -0.112666678552504    
N     4.38153340021932         2.40876837050858        0.305320874023371E-01
N     4.04508497187474         2.93892626146237        0.102630197991192    
N     3.64484313710706         3.42273552964344       -0.169114140300591    
N     3.18711994874345         3.85256621387895       -0.132693850838887E-01
N     2.67913397489498         4.22163962751008        0.199476469852267    
N     2.12889645782536         4.52413526233010        0.179349194847587    
N     1.54508497187474         4.75528258147577        0.826839433744635E-01
N    0.936906572928624         4.91143625364344        0.252206786226474E-01
N    0.313952597646568         4.99013364214136        0.564934399986667E-02
N   -0.313952597646567         4.99013364214136        0.111141330665690E-02
N   -0.936906572928623         4.91143625364344        0.111141330665690E-02
N    -1.54508497187474         4.75528258147577        0.564934399986667E-02
N    -2.12889645782536         4.52413526233010        0.252206786226474E-01
N    -2.67913397489498         4.22163962751007        0.826839433744635E-01
N    -3.18711994874345         3.85256621387895        0.179349194847587    
N    -3.64484313710706         3.42273552964344        0.199476469852267    
N    -4.04508497187474         2.93892626146237       -0.132693850838887E-01
N    -4.38153340021932         2.40876837050858       -0.169114140300591    
N    -4.64888242944126         1.84062276342339        0.102630197991192    
N    -4.84291580564315         1.24344943582428        0.305320874023371E-01
N    -4.96057350657239        0.626666167821523       -0.112666678552504    
N    -5.00000000000000        0.612323399573677E-15    0.142786431768440    
N    -4.96057350657239       -0.626666167821522       -0.148779114456945    
N    -4.84291580564316        -1.24344943582427        0.142786431768440    
N    -4.64888242944126        -1.84062276342339       -0.112666678552504    
N    -4.38153340021932        -2.40876837050858        0.305320874023371E-01
N    -4.04508497187474        -2.93892626146236        0.102630197991192    
N    -3.64484313710706        -3.42273552964344       -0.169114140300591    
N    -3.18711994874345        -3.85256621387895       -0.132693850838887E-01
N    -2.67913397489498        -4.22163962751008        0.199476469852267    
N    -2.12889645782536        -4.52413526233010        0.179349194847587    
N    -1.54508497187474        -4.75528258147577        0.826839433744635E-01
N   -0.936906572928623        -4.91143625364344        0.252206786226474E-01
N   -0.313952597646566        -4.99013364214136        0.564934399986667E-02
N    0.313952597646564        -4.99013364214136        0.111141330665690E-02
N    0.936906572928621        -4.91143625364344        0.111141330665690E-02
N     1.54508497187474        -4.75528258147577        0.564934399986667E-02
N     2.12889645782536        -4.52413526233010        0.252206786226474E-01
N     2.67913397489498        -4.22163962751008        0.826839433744635E-01
N     3.18711994874345        -3.85256621387895        0.179349194847587    
N     3.64484313710706        -3.42273552964344        0.199476469852267    
N     4.04508497187474        -2.93892626146237       -0.132693850838887E-01
N     4.38153340021932        -2.40876837050858       -0.169114140300591    
N     4.64888242944126        -1.84062276342339        0.102630197991192    
N     4.84291580564315        -1.24344943582428        0.305320874023371E-01
N     4.96057350657239       -0.626666167821523       -0.112666678552504    
N     5.00000000000000       -0.122464679914735E-14    0.142786431768440    
          50

N     4.96057350657239        0.626666167821521       -0.117752957862146    
N     4.84291580564316         1.24344943582427        0.105832057692227    
N     4.64888242944126         1.84062276342339       -0.614837378411661E-01
N     4.38153340021932         2.40876837050858       -0.290563419509278E-01
N     4.04508497187474         2.93892626146237        0.139312088865015    
N     3.64484313710706         3.42273552964344       -0.145449252289815    
N     3.18711994874345         3.85256621387895       -0.633750639717318E-01
N     2.67913397489498         4.22163962751008        0.176493684704885    
N     2.12889645782536         4.52413526233010        0.194116199536933    
N     1.54508497187474         4.75528258147577        0.997535641226351E-01
N    0.936906572928624         4.91143625364344        0.330784654215352E-01
N    0.313952597646568         4.99013364214136        0.796844311641566E-02
N   -0.313952597646567         4.99013364214136        0.168637152506735E-02
N   -0.936906572928623         4.91143625364344        0.168637152506735E-02
N    -1.54508497187474         4.75528258147577        0.796844311641566E-02
N    -2.12889645782536         4.52413526233010        0.330784654215352E-01
N    -2.67913397489498         4.22163962751007        0.997535641226351E-01
N    -3.18711994874345         3.85256621387895        0.194116199536933    
N    -3.64484313710706         3.42273552964344        0.176493684704885    
N    -4.04508497187474         2.93892626146237       -0.633750639717318E-01
N    -4.38153340021932         2.40876837050858       -0.145449252289815    
N    -4.64888242944126         1.84062276342339        0.139312088865015    
N    -4.84291580564315         1.24344943582428       -0.290563419509278E-01
N    -4.96057350657239        0.626666167821523       -0.614837378411661E-01
N    -5.00000000000000        0.612323399573677E-15    0.105832057692227    
N    -4.96057350657239       -0.626666167821522       -0.117752957862146    
N    -4.84291580564316        -1.24344943582427        0.105832057692227    
N    -4.64888242944126        -1.84062276342339       -0.614837378411661E-01
N    -4.38153340021932        -2.40876837050858       -0.290563419509278E-01
N    -4.04508497187474        -2.93892626146236        0.139312088865015    
N    -3.64484313710706        -3.42273552964344       -0.145449252289815    
N    -3.18711994874345        -3.85256621387895       -0.633750639717318E-01
N    -2.67913397489498        -4.22163962751008        0.176493684704885    
N    -2.12889645782536        -4.52413526233010        0.194116199536933    
N    -1.54508497187474        -4.75528258147577        0.997535641226351E-01
N   -0.936906572928623        -4.91143625364344        0.330784654215352E-01
N   -0.313952597646566        -4.99013364214136        0.796844311641566E-02
N    0.313952597646564        -4.99013364214136        0.168637152506735E-02
N    0.936906572928621        -4.91143625364344        0.168637152506735E-02
N     1.54508497187474        -4.75528258147577        0.796844311641566E-02
N     2.12889645782536        -4.52413526233010        0.330784654215352E-01
N     2.67913397489498        -4.22163962751008        0.997535641226351E-01
N     3.18711994874345        -3.85256621387895        0.194116199536933    
N     3.64484313710706        -3.42273552964344        0.176493684704885    
N     4.04508497187474        -2.93892626146237       -0.633750639717318E-01
N     4.38153340021932        -2.40876837050858       -0.145449252289815    
N     4.64888242944126        -1.84062276342339        0.139312088865015    
N     4.84291580564315        -1.24344943582428       -0.290563419509278E-01
N     4.96057350657239       -0.626666167821523       -0.614837378411661E-01
N     5.00000000000000       -0.122464679914735E-14    0.105832057692227    
          50

N     4.96057350657239        0.626666167821521       -0.690623851937257E-01
N     4.84291580564316         1.24344943582427        0.534312271207124E-01
N     4.64888242944126         1.84062276342339       -0.239793690337074E-02
N     4.38153340021932         2.40876837050858       -0.832768457140010E-01
N     4.04508497187474         2.93892626146237        0.158055885237583    
N     3.64484313710706         3.42273552964344       -0.107247559733565    
N     3.18711994874345         3.85256621387895       -0.107191795040966    
N     2.67913397489498         4.22163962751008        0.144686224701277    
N     2.12889645782536         4.52413526233010        0.204407773885741    
N     1.54508497187474         4.75528258147577        0.117913957045677    
N    0.936906572928624         4.91143625364344        0.425939658282669E-01
N    0.313952597646568         4.99013364214136        0.110420112021985E-01
N   -0.313952597646567         4.99013364214136        0.251428496730929E-02
N   -0.936906572928623         4.91143625364344        0.251428496730929E-02
N    -1.54508497187474         4.75528258147577        0.110420112021985E-01
N    -2.12889645782536         4.52413526233010        0.425939658282669E-01
N    -2.67913397489498         4.22163962751007        0.117913957045677    
N    -3.18711994874345         3.85256621387895        0.204407773885741    
N    -3.64484313710706         3.42273552964344        0.144686224701277    
N    -4.04508497187474         2.93892626146237       -0.107191795040966    
N    -4.38153340021932         2.40876837050858       -0.107247559733565    
N    -4.64888242944126         1.84062276342339        0.158055885237583    
N    -4.84291580564315         1.24344943582428       -0.832768457140010E-01
N    -4.96057350657239        0.626666167821523       -0.239793690337074E-02
N    -5.00000000000000        0.612323399573677E-15    0.534312271207124E-01
N    -4.96057350657239       -0.626666167821522       -0.690623851937257E-01
N    -4.84291580564316        -1.24344943582427        0.534312271207124E-01
N    -4.64888242944126        -1.84062276342339       -0.239793690337074E-02
N    -4.38153340021932        -2.40876837050858       -0.832768457140010E-01
N    -4.04508497187474        -2.93892626146236        0.158055885237583    
N    -3.64484313710706        -3.42273552964344       -0.107247559733565    
N    -3.18711994874345        -3.85256621387895       -0.107191795040966    
N    -2.67913397489498        -4.22163962751008        0.144686224701277    
N    -2.12889645782536        -4.52413526233010        0.204407773885741    
N    -1.54508497187474        -4.75528258147577        0.117913957045677    
N   -0.936906572928623        -4.91143625364344        0.425939658282669E-01
N   -0.313952597646566        -4.99013364214136        0.110420112021985E-01
N    0.313952597646564        -4.99013364214136        0.251428496730929E-02
N    0.936906572928621        -4.91143625364344        0.251428496730929E-02
N     1.54508497187474        -4.75528258147577        0.110420112021985E-01
N     2.12889645782536        -4.52413526233010        0.425939658282669E-01
N     2.67913397489498        -4.22163962751008        0.117913957045677    
N     3.18711994874345        -3.85256621387895        0.204407773885741    
N     3.64484313710706        -3.42273552964344        0.144686224701277    
N     4.04508497187474        -2.93892626146237       -0.107191795040966    
N     4.38153340021932        -2.40876837050858       -0.107247559733565    
N     4.64888242944126        -1.84062276342339        0.158055885237583    
N     4.84291580564315        -1.24344943582428       -0.832768457140010E-01
N     4.96057350657239       -0.626666167821523       -0.239793690337074E-02
N     5.00000000000000       -0.122464679914735E-14    0.534312271207124E-01
          50

N     4.96057350657239        0.626666167821521       -0.106847016876053E-01
N     4.84291580564316         1.24344943582427       -0.602595688391978E-02
N     4.64888242944126         1.84062276342339        0.557115644222774E-01
N     4.38153340021932         2.40876837050858       -0.124764963438387    
N     4.04508497187474         2.93892626146237        0.156746765125508    
N     3.64484313710706         3.42273552964344       -0.585357506342296E-01
N     3.18711994874345         3.85256621387895       -0.140992927666192    
N     2.67913397489498         4.22163962751008        0.105257598170114    
N     2.12889645782536         4.52413526233010        0.208865618446008    
N     1.54508497187474         4.75528258147577        0.136504718271509    
N    0.936906572928624         4.91143625364344        0.538530738891495E-01
N    0.313952597646568         4.99013364214136        0.150373722872008E-01
N   -0.313952597646567         4.99013364214136        0.368523885476399E-02
N   -0.936906572928623         4.91143625364344        0.368523885476399E-02
N    -1.54508497187474         4.75528258147577        0.150373722872008E-01
N    -2.12889645782536         4.52413526233010        0.538530738891495E-01
N    -2.67913397489498         4.22163962751007        0.136504718271509    
N    -3.18711994874345         3.85256621387895        0.208865618446008    
N    -3.64484313710706         3.42273552964344        0.105257598170114    
N    -4.04508497187474         2.93892626146237       -0.140992927666192    
N    -4.38153340021932         2.40876837050858       -0.585357506342296E-01
N    -4.64888242944126         1.84062276342339        0.156746765125508    
N    -4.84291580564315         1.24344943582428       -0.124764963438387    
N    -4.96057350657239        0.626666167821523        0.557115644222774E-01
N    -5.00000000000000        0.612323399573677E-15   -0.602595688391978E-02
N    -4.96057350657239       -0.626666167821522       -0.106847016876053E-01
N    -4.84291580564316        -1.24344943582427       -0.602595688391978E-02
N    -4.64888242944126        -1.84062276342339        0.557115644222774E-01
N    -4.38153340021932        -2.40876837050858       -0.124764963438387    
N    -4.04508497187474        -2.93892626146236        0.156746765125508    
N    -3.64484313710706        -3.42273552964344       -0.585357506342296E-01
N    -3.18711994874345        -3.85256621387895       -0.140992927666192    
N    -2.67913397489498        -4.22163962751008        0.105257598170114    
N    -2.12889645782536        -4.52413526233010        0.208865618446008    
N    -1.54508497187474        -4.75528258147577        0.136504718271509    
N   -0.936906572928623        -4.91143625364344        0.538530738891495E-01
N   -0.313952597646566        -4.99013364214136        0.150373722872008E-01
N    0.313952597646564        -4.99013364214136        0.368523885476399E-02
N    0.936906572928621        -4.91143625364344        0.368523885476399E-02
N     1.54508497187474        -4.75528258147577        0.150373722872008E-01
N     2.12889645782536        -4.52413526233010        0.538530738891495E-01
N     2.67913397489498        -4.22163962751008        0.136504718271509    
N     3.18711994874345        -3.85256621387895        0.208865618446008    
N     3.64484313710706        -3.42273552964344        0.105257598170114    
N     4.04508497187474        -2.93892626146237       -0.140992927666192    
N     4.38153340021932        -2.40876837050858       -0.585357506342296E-01
N     4.64888242944126        -1.84062276342339        0.156746765125508    
N     4.84291580564315        -1.24344943582428       -0.124764963438387    
N     4.96057350657239       -0.626666167821523        0.557115644222774E-01
N     5.00000000000000       -0.122464679914735E-14   -0.602595688391978E-02
          50

N     4.96057350657239        0.626666167821521        0.480782611223603E-01
N     4.84291580564316         1.24344943582427       -0.632459461625948E-01
N     4.64888242944126         1.84062276342339        0.104265591382470    
N     4.38153340021932         2.40876837050858       -0.147994233430476    
N     4.04508497187474         2.93892626146237        0.135776727535045    
N     3.64484313710706         3.42273552964344       -0.456844278115262E-02
N     3.18711994874345         3.85256621387895       -0.161734478937614    
N     2.67913397489498         4.22163962751008        0.601814362492087E-01
N     2.12889645782536         4.52413526233010        0.206311227314661    
N     1.54508497187474         4.75528258147577        0.154669038574039    
N    0.936906572928624         4.91143625364344        0.668562250948562E-01
N    0.313952597646568         4.99013364214136        0.201313011507363E-01
N   -0.313952597646567         4.99013364214136        0.531242344964243E-02
N   -0.936906572928623         4.91143625364344        0.531242344964243E-02
N    -1.54508497187474         4.75528258147577        0.201313011507363E-01
N    -2.12889645782536         4.52413526233010        0.668562250948562E-01
N    -2.67913397489498         4.22163962751007        0.154669038574039    
N    -3.18711994874345         3.85256621387895        0.206311227314661    
N    -3.64484313710706         3.42273552964344        0.601814362492087E-01
N    -4.04508497187474         2.93892626146237       -0.161734478937614    
N    -4.38153340021932         2.40876837050858       -0.456844278115262E-02
N    -4.64888242944126         1.84062276342339        0.135776727535045    
N    -4.84291580564315         1.24344943582428       -0.147994233430476    
N    -4.96057350657239        0.626666167821523        0.104265591382470    
N    -5.00000000000000        0.612323399573677E-15   -0.632459461625948E-01
N    -4.96057350657239       -0.626666167821522        0.480782611223603E-01
N    -4.84291580564316        -1.24344943582427       -0.632459461625948E-01
N    -4.64888242944126        -1.84062276342339        0.104265591382470    
N    -4.38153340021932        -2.40876837050858       -0.147994233430476    
N    -4.04508497187474        -2.93892626146236        0.135776727535045    
N    -3.64484313710706        -3.42273552964344       -0.456844278115262E-02
N    -3.18711994874345        -3.85256621387895       -0.161734478937614    
N    -2.67913397489498        -4.22163962751008        0.601814362492087E-01
N    -2.12889645782536        -4.52413526233010        0.206311227314661    
N    -1.54508497187474        -4.75528258147577        0.154669038574039    
N   -0.936906572928623        -4.91143625364344        0.668562250948562E-01
N   -0.313952597646566        -4.99013364214136        0.201313011507363E-01
N    0.313952597646564        -4.99013364214136        0.531242344964243E-02
N    0.936906572928621        -4.91143625364344        0.531242344964243E-02
N     1.54508497187474        -4.75528258147577        0.201313011507363E-01
N     2.12889645782536        -4.52413526233010        0.668562250948562E-01
N     2.67913397489498        -4.22163962751008        0.154669038574039    
N     3.18711994874345        -3.85256621387895        0.206311227314661    
N     3.64484313710706        -3.42273552964344        0.601814362492087E-01
N     4.04508497187474        -2.93892626146237       -0.161734478937614    
N     4.38153340021932        -2.40876837050858       -0.456844278115262E-02
N     4.64888242944126        -1.84062276342339        0.135776727535045    
N     4.84291580564315        -1.24344943582428       -0.147994233430476    
N     4.96057350657239       -0.626666167821523        0.104265591382470    
N     5.00000000000000       -0.122464679914735E-14   -0.632459461625948E-01
          50

N     4.96057350657239        0.626666167821521        0.980682359759919E-01
N     4.84291580564316         1.24344943582427       -0.109471621849198    
N     4.64888242944126         1.84062276342339        0.136248213341235    
N     4.38153340021932         2.40876837050858       -0.150036517275034    
N     4.04508497187474         2.93892626146237        0.980235440904982E-01
N     3.64484313710706         3.42273552964344        0.487246068108660E-01
N     3.18711994874345         3.85256621387895       -0.167425829432676    
N     2.67913397489498         4.22163962751008        0.121179951276809E-01
N     2.12889645782536         4.52413526233010        0.195883711975875    
N     1.54508497187474         4.75528258147577        0.171375353050423    
N    0.936906572928624         4.91143625364344        0.814913808465173E-01
N    0.313952597646568         4.99013364214136        0.265004083282390E-01
N   -0.313952597646567         4.99013364214136        0.753463699757901E-02
N   -0.936906572928623         4.91143625364344        0.753463699757901E-02
N    -1.54508497187474         4.75528258147577        0.265004083282390E-01
N    -2.12889645782536         4.52413526233010        0.814913808465173E-01
N    -2.67913397489498         4.22163962751007        0.171375353050423    
N    -3.18711994874345         3.85256621387895        0.195883711975875    
N    -3.64484313710706         3.42273552964344        0.121179951276809E-01
N    -4.04508497187474         2.93892626146237       -0.167425829432676    
N    -4.38153340021932         2.40876837050858        0.487246068108660E-01
N    -4.64888242944126         1.84062276342339        0.980235440904982E-01
N    -4.84291580564315         1.24344943582428       -0.150036517275034    
N    -4.96057350657239        0.626666167821523        0.136248213341235    
N    -5.00000000000000        0.612323399573677E-15   -0.109471621849198    
N    -4.96057350657239       -0.626666167821522        0.980682359759919E-01
N    -4.84291580564316        -1.24344943582427       -0.109471621849198    
N    -4.64888242944126        -1.84062276342339        0.136248213341235    
N    -4.38153340021932        -2.40876837050858       -0.150036517275034    
N    -4.04508497187474        -2.93892626146236        0.980235440904982E-01
N    -3.64484313710706        -3.42273552964344        0.487246068108660E-01
N    -3.18711994874345        -3.85256621387895       -0.167425829432676    
N    -2.67913397489498        -4.22163962751008        0.121179951276809E-01
N    -2.12889645782536        -4.52413526233010        0.195883711975875    
N    -1.54508497187474        -4.75528258147577        0.171375353050423    
N   -0.936906572928623        -4.91143625364344        0.814913808465173E-01
N   -0.313952597646566        -4.99013364214136        0.265004083282390E-01
N    0.313952597646564        -4.99013364214136        0.753463699757901E-02
N    0.936906572928621        -4.91143625364344        0.753463699757901E-02
N     1.54508497187474        -4.75528258147577        0.265004083282390E-01
N     2.12889645782536        -4.52413526233010        0.814913808465173E-01
N     2.67913397489498        -4.22163962751008        0.171375353050423    
N     3.18711994874345        -3.85256621387895        0.195883711975875    
N     3.64484313710706        -3.42273552964344        0.121179951276809E-01
N     4.04508497187474        -2.93892626146237       -0.167425829432676    
N     4.38153340021932        -2.40876837050858        0.487246068108660E-01
N     4.64888242944126        -1.84062276342339        0.980235440904982E-01
N     4.84291580564315        -1.24344943582428       -0.150036517275034    
N     4.96057350657239       -0.626666167821523        0.136248213341235    
N     5.00000000000000       -0.122464679914735E-14   -0.109471621849198    
          50

N     4.96057350657239        0.626666167821521        0.131685307280207    
N     4.84291580564316         1.24344943582427       -0.137812729005192    
N     4.64888242944126         1.84062276342339        0.147222809339877    
N     4.38153340021932         2.40876837050858       -0.130956876404503    
N     4.04508497187474         2.93892626146237        0.485036947747661E-01
N     3.64484313710706         3.42273552964344        0.954010495740115E-01
N     3.18711994874345         3.85256621387895       -0.157416165210837    
N     2.67913397489498         4.22163962751008       -0.357528762488457E-01
N     2.12889645782536         4.52413526233010        0.177172517533727    
N     1.54508497187474         4.75528258147577        0.185461019551891    
N    0.936906572928624         4.91143625364344        0.975090628216377E-01
N    0.313952597646568         4.99013364214136        0.343080899084700E-01
N   -0.313952597646567         4.99013364214136        0.105177497248942E-01
N   -0.936906572928623         4.91143625364344        0.105177497248942E-01
N    -1.54508497187474         4.75528258147577        0.343080899084700E-01
N    -2.12889645782536         4.52413526233010        0.975090628216377E-01
N    -2.67913397489498         4.22163962751007        0.185461019551891    
N    -3.18711994874345         3.85256621387895        0.177172517533727    
N    -3.64484313710706         3.42273552964344       -0.357528762488457E-01
N    -4.04508497187474         2.93892626146237       -0.157416165210837    
N    -4.38153340021932         2.40876837050858        0.954010495740115E-01
N    -4.64888242944126         1.84062276342339        0.485036947747661E-01
N    -4.84291580564315         1.24344943582428       -0.130956876404503    
N    -4.96057350657239        0.626666167821523        0.147222809339877    
N    -5.00000000000000        0.612323399573677E-15   -0.137812729005192    
N    -4.96057350657239       -0.626666167821522        0.131685307280207    
N    -4.84291580564316        -1.24344943582427       -0.137812729005192    
N    -4.64888242944126        -1.84062276342339        0.147222809339877    
N    -4.38153340021932        -2.40876837050858       -0.130956876404503    
N    -4.04508497187474        -2.93892626146236        0.485036947747661E-01
N    -3.64484313710706        -3.42273552964344        0.954010495740115E-01
N    -3.18711994874345        -3.85256621387895       -0.157416165210837    
N    -2.67913397489498        -4.22163962751008       -0.357528762488457E-01
N    -2.12889645782536        -4.52413526233010        0.177172517533727    
N    -1.54508497187474        -4.75528258147577        0.185461019551891    
N   -0.936906572928623        -4.91143625364344        0.975090628216377E-01
N   -0.313952597646566        -4.99013364214136        0.343080899084700E-01
N    0.313952597646564        -4.99013364214136        0.105177497248942E-01
N    0.936906572928621        -4.91143625364344        0.105177497248942E-01
N     1.54508497187474        -4.75528258147577        0.343080899084700E-01
N     2.12889645782536        -4.52413526233010        0.975090628216377E-01
N     2.67913397489498        -4.22163962751008        0.185461019551891    
N     3.18711994874345        -3.85256621387895        0.177172517533727    
N     3.64484313710706        -3.42273552964344       -0.357528762488457E-01
N     4.04508497187474        -2.93892626146237       -0.157416165210837    
N     4.38153340021932        -2.40876837050858        0.954010495740115E-01
N     4.64888242944126        -1.84062276342339        0.485036947747661E-01
N     4.84291580564315        -1.24344943582428       -0.130956876404503    
N     4.96057350657239       -0.626666167821523        0.147222809339877    
N     5.00000000000000       -0.122464679914735E-14   -0.137812729005192    
          50

N     4.96057350657239        0.626666167821521        0.144032585086932    
N     4.84291580564316         1.24344943582427       -0.144265780325897    
N     4.64888242944126         1.84062276342339        0.135952508433741    
N     4.38153340021932         2.40876837050858       -0.937854082035893E-01
N     4.04508497187474         2.93892626146237       -0.626256245708089E-02
N     3.64484313710706         3.42273552964344        0.130200695861261    
N     3.18711994874345         3.85256621387895       -0.132554449566759    
N     2.67913397489498         4.22163962751008       -0.799750475648662E-01
N     2.12889645782536         4.52413526233010        0.150329609969961    
N     1.54508497187474         4.75528258147577        0.195698795355036    
N    0.936906572928624         4.91143625364344        0.114502641200875    
N    0.313952597646568         4.99013364214136        0.436881541418663E-01
N   -0.313952597646567         4.99013364214136        0.144545506119869E-01
N   -0.936906572928623         4.91143625364344        0.144545506119869E-01
N    -1.54508497187474         4.75528258147577        0.436881541418663E-01
N    -2.12889645782536         4.52413526233010        0.114502641200875    
N    -2.67913397489498         4.22163962751007        0.195698795355036    
N    -3.18711994874345         3.85256621387895        0.150329609969961    
N    -3.64484313710706         3.42273552964344       -0.799750475648662E-01
N    -4.04508497187474         2.93892626146237       -0.132554449566759    
N    -4.38153340021932         2.40876837050858        0.130200695861261    
N    -4.64888242944126         1.84062276342339       -0.626256245708089E-02
N    -4.84291580564315         1.24344943582428       -0.937854082035893E-01
N    -4.96057350657239        0.626666167821523        0.135952508433741    
N    -5.00000000000000        0.612323399573677E-15   -0.144265780325897    
N    -4.96057350657239       -0.626666167821522        0.144032585086932    
N    -4.84291580564316        -1.24344943582427       -0.144265780325897    
N    -4.64888242944126        -1.84062276342339        0.135952508433741    
N    -4.38153340021932        -2.40876837050858       -0.937854082035893E-01
N    -4.04508497187474        -2.93892626146236       -0.626256245708089E-02
N    -3.64484313710706        -3.42273552964344        0.130200695861261    
N    -3.18711994874345        -3.85256621387895       -0.132554449566759    
N    -2.67913397489498        -4.22163962751008       -0.799750475648662E-01
N    -2.12889645782536        -4.52413526233010        0.150329609969961    
N    -1.54508497187474        -4.75528258147577        0.195698795355036    
N   -0.936906572928623        -4.91143625364344        0.114502641200875    
N   -0.313952597646566        -4.99013364214136        0.436881541418663E-01
N    0.313952597646564        -4.99013364214136        0.144545506119869E-01
N    0.936906572928621        -4.91143625364344        0.144545506119869E-01
N     1.54508497187474        -4.75528258147577        0.436881541418663E-01
N     2.12889645782536        -4.52413526233010        0.114502641200875    
N     2.67913397489498        -4.22163962751008        0.195698795355036    
N     3.18711994874345        -3.85256621387895        0.150329609969961    
N     3.64484313710706        -3.42273552964344       -0.799750475648662E-01
N     4.04508497187474        -2.93892626146237       -0.132554449566759    
N     4.38153340021932        -2.40876837050858        0.130200695861261    
N     4.64888242944126        -1.84062276342339       -0.626256245708089E-02
N     4.84291580564315        -1.24344943582428       -0.937854082035893E-01
N     4.96057350657239       -0.626666167821523        0.135952508433741    
N     5.00000000000000       -0.122464679914735E-14   -0.144265780325897    
          50

N     4.96057350657239        0.626666167821521        0.133619757740349    
N     4.84291580564316         1.24344943582427       -0.128273112240732    
N     4.64888242944126         1.84062276342339        0.104536787798384    
N     4.38153340021932         2.40876837050858       -0.440688870766391E-01
N     4.04508497187474         2.93892626146237       -0.590951058283702E-01
N     3.64484313710706         3.42273552964344        0.149186038942316    
N     3.18711994874345         3.85256621387895       -0.951925053430107E-01
N     2.67913397489498         4.22163962751008       -0.117118211938410    
N     2.12889645782536         4.52413526233010        0.116145245604461    
N     1.54508497187474         4.75528258147577        0.200884462453556    
N    0.936906572928624         4.91143625364344        0.131897430316405    
N    0.313952597646568         4.99013364214136        0.547256464221106E-01
N   -0.313952597646567         4.99013364214136        0.195623320197545E-01
N   -0.936906572928623         4.91143625364344        0.195623320197545E-01
N    -1.54508497187474         4.75528258147577        0.547256464221106E-01
N    -2.12889645782536         4.52413526233010        0.131897430316405    
N    -2.67913397489498         4.22163962751007        0.200884462453556    
N    -3.18711994874345         3.85256621387895        0.116145245604461    
N    -3.64484313710706         3.42273552964344       -0.117118211938410    
N    -4.04508497187474         2.93892626146237       -0.951925053430107E-01
N    -4.38153340021932         2.40876837050858        0.149186038942316    
N    -4.64888242944126         1.84062276342339       -0.590951058283702E-01
N    -4.84291580564315         1.24344943582428       -0.440688870766391E-01
N    -4.96057350657239        0.626666167821523        0.104536787798384    
N    -5.00000000000000        0.612323399573677E-15   -0.128273112240732    
N    -4.96057350657239       -0.626666167821522        0.133619757740349    
N    -4.84291580564316        -1.24344943582427       -0.128273112240732    
N    -4.64888242944126        -1.84062276342339        0.104536787798384    
N    -4.38153340021932        -2.40876837050858       -0.440688870766391E-01
N    -4.04508497187474        -2.93892626146236       -0.590951058283702E-01
N    -3.64484313710706        -3.42273552964344        0.149186038942316    
N    -3.18711994874345        -3.85256621387895       -0.951925053430107E-01
N    -2.67913397489498        -4.22163962751008       -0.117118211938410    
N    -2.12889645782536        -4.52413526233010        0.116145245604461    
N    -1.54508497187474        -4.75528258147577        0.200884462453556    
N   -0.936906572928623        -4.91143625364344        0.131897430316405    
N   -0.313952597646566        -4.99013364214136        0.547256464221106E-01
N    0.313952597646564        -4.99013364214136        0.195623320197545E-01
N    0.936906572928621        -4.91143625364344        0.195623320197545E-01
N     1.54508497187474        -4.75528258147577        0.547256464221106E-01
N     2.12889645782536        -4.52413526233010        0.131897430316405    
N     2.67913397489498        -4.22163962751008        0.200884462453556    
N     3.18711994874345        -3.85256621387895        0.116145245604461    
N     3.64484313710706        -3.42273552964344       -0.117118211938410    
N     4.04508497187474        -2.93892626146237       -0.951925053430107E-01
N     4.38153340021932        -2.40876837050858        0.149186038942316    
N     4.64888242944126        -1.84062276342339       -0.590951058283702E-01
N     4.84291580564315        -1.24344943582428       -0.440688870766391E-01
N     4.96057350657239       -0.626666167821523        0.104536787798384    
N     5.00000000000000       -0.122464679914735E-14   -0.128273112240732    
          50

N     4.96057350657239        0.626666167821521        0.102525704490903    
N     4.84291580564316         1.24344943582427       -0.927436687668725E-01
N     4.64888242944126         1.84062276342339        0.580490218574307E-01
N     4.38153340021932         2.40876837050858        0.109343715181620E-01
N     4.04508497187474         2.93892626146237       -0.103097011681353    
N     3.64484313710706         3.42273552964344        0.150244409754995    
N     3.18711994874345         3.85256621387895       -0.490177080036779E-01
N     2.67913397489498         4.22163962751008       -0.144111891295364    
N     2.12889645782536         4.52413526233010        0.760728544467508E-01
N     1.54508497187474         4.75528258147577        0.199941178921955    
N    0.936906572928624         4.91143625364344        0.148952166720038    
N    0.313952597646568         4.99013364214136        0.674358769305369E-01
N   -0.313952597646567         4.99013364214136        0.260775473519476E-01
N   -0.936906572928623         4.91143625364344        0.260775473519476E-01
N    -1.54508497187474         4.75528258147577        0.674358769305369E-01
N    -2.12889645782536         4.52413526233010        0.148952166720038    
N    -2.67913397489498         4.22163962751007        0.199941178921955    
N    -3.18711994874345         3.85256621387895        0.760728544467508E-01
N    -3.64484313710706         3.42273552964344       -0.144111891295364    
N    -4.04508497187474         2.93892626146237       -0.490177080036779E-01
N    -4.38153340021932         2.40876837050858        0.150244409754995    
N    -4.64888242944126         1.84062276342339       -0.103097011681353    
N    -4.84291580564315         1.24344943582428        0.109343715181620E-01
N    -4.96057350657239        0.626666167821523        0.580490218574307E-01
N    -5.00000000000000        0.612323399573677E-15   -0.927436687668725E-01
N    -4.96057350657239       -0.626666167821522        0.102525704490903    
N    -4.84291580564316        -1.24344943582427       -0.927436687668725E-01
N    -4.64888242944126        -1.84062276342339        0.580490218574307E-01
N    -4.38153340021932        -2.40876837050858        0.109343715181620E-01
N    -4.04508497187474        -2.93892626146236       -0.103097011681353    
N    -3.64484313710706        -3.42273552964344        0.150244409754995    
N    -3.18711994874345        -3.85256621387895       -0.490177080036779E-01
N    -2.67913397489498        -4.22163962751008       -0.144111891295364    
N    -2.12889645782536        -4.52413526233010        0.760728544467508E-01
N    -1.54508497187474        -4.75528258147577        0.199941178921955    
N   -0.936906572928623        -4.91143625364344        0.148952166720038    
N   -0.313952597646566        -4.99013364214136        0.674358769305369E-01
N    0.313952597646564        -4.99013364214136        0.260775473519476E-01
N    0.936906572928621        -4.91143625364344        0.260775473519476E-01
N     1.54508497187474        -4.75528258147577        0.674358769305369E-01
N     2.12889645782536        -4.52413526233010        0.148952166720038    
N     2.67913397489498        -4.22163962751008        0.199941178921955    
N     3.18711994874345        -3.85256621387895        0.760728544467508E-01
N     3.64484313710706        -3.42273552964344       -0.144111891295364    
N     4.04508497187474        -2.93892626146237       -0.490177080036779E-01
N     4.38153340021932        -2.40876837050858        0.150244409754995    
N     4.64888242944126        -1.84062276342339       -0.103097011681353    
N     4.84291580564315        -1.24344943582428        0.109343715181620E-01
N     4.96057350657239       -0.626666167821523        0.580490218574307E-01
N     5.00000000000000       -0.122464679914735E-14   -0.927436687668725E-01
          50

N     4.96057350657239        0.626666167821521        0.560055523325050E-01
N     4.84291580564316         1.24344943582427       -0.435416509263890E-01
N     4.64888242944126         1.84062276342339        0.373454452865572E-02
N     4.38153340021932         2.40876837050858        0.633011904657547E-01
N     4.04508497187474         2.93892626146237       -0.132570498351925    
N     3.64484313710706         3.42273552964344        0.133381433706544    
N     3.18711994874345         3.85256621387895        0.127797468420146E-02
N     2.67913397489498         4.22163962751008       -0.158577222227817    
N     2.12889645782536         4.52413526233010        0.321920247103688E-01
N     1.54508497187474         4.75528258147577        0.192033284896199    
N    0.936906572928624         4.91143625364344        0.164776046040781    
N    0.313952597646568         4.99013364214136        0.817431726048204E-01
N   -0.313952597646567         4.99013364214136        0.342469237025529E-01
N   -0.936906572928623         4.91143625364344        0.342469237025529E-01
N    -1.54508497187474         4.75528258147577        0.817431726048204E-01
N    -2.12889645782536         4.52413526233010        0.164776046040781    
N    -2.67913397489498         4.22163962751007        0.192033284896199    
N    -3.18711994874345         3.85256621387895        0.321920247103688E-01
N    -3.64484313710706         3.42273552964344       -0.158577222227817    
N    -4.04508497187474         2.93892626146237        0.127797468420146E-02
N    -4.38153340021932         2.40876837050858        0.133381433706544    
N    -4.64888242944126         1.84062276342339       -0.132570498351925    
N    -4.84291580564315         1.24344943582428        0.633011904657547E-01
N    -4.96057350657239        0.626666167821523        0.373454452865572E-02
N    -5.00000000000000        0.612323399573677E-15   -0.435416509263890E-01
N    -4.96057350657239       -0.626666167821522        0.560055523325050E-01
N    -4.84291580564316        -1.24344943582427       -0.435416509263890E-01
N    -4.64888242944126        -1.84062276342339        0.373454452865572E-02
N    -4.38153340021932        -2.40876837050858        0.633011904657547E-01
N    -4.04508497187474        -2.93892626146236       -0.132570498351925    
N    -3.64484313710706        -3.42273552964344        0.133381433706544    
N    -3.18711994874345        -3.85256621387895        0.127797468420146E-02
N    -2.67913397489498        -4.22163962751008       -0.158577222227817    
N    -2.12889645782536        -4.52413526233010        0.321920247103688E-01
N    -1.54508497187474        -4.75528258147577        0.192033284896199    
N   -0.936906572928623        -4.91143625364344        0.164776046040781    
N   -0.313952597646566        -4.99013364214136        0.817431726048204E-01
N    0.313952597646564        -4.99013364214136        0.342469237025529E-01
N    0.936906572928621        -4.91143625364344        0.342469237025529E-01
N     1.54508497187474        -4.75528258147577        0.817431726048204E-01
N     2.12889645782536        -4.52413526233010        0.164776046040781    
N     2.67913397489498        -4.22163962751008        0.192033284896199    
N     3.18711994874345        -3.85256621387895        0.321920247103688E-01
N     3.64484313710706        -3.42273552964344       -0.158577222227817    
N     4.04508497187474        -2.93892626146237        0.127797468420146E-02
N     4.38153340021932        -2.40876837050858        0.133381433706544    
N     4.64888242944126        -1.84062276342339       -0.132570498351925    
N     4.84291580564315        -1.24344943582428        0.633011904657547E-01
N     4.96057350657239       -0.626666167821523        0.373454452865572E-02
N     5.00000000000000       -0.122464679914735E-14   -0.435416509263890E-01
          50

N     4.96057350657239        0.626666167821521        0.161345310247863E-02
N     4.84291580564316         1.24344943582427        0.114695121299528E-01
N     4.64888242944126         1.84062276342339       -0.501059376931946E-01
N     4.38153340021932         2.40876837050858        0.105581155917814    
N     4.04508497187474         2.93892626146237       -0.143780373971206    
N     3.64484313710706         3.42273552964344        0.100759552211613    
N     3.18711994874345         3.85256621387895        0.504647444651621E-01
N     2.67913397489498         4.22163962751008       -0.159118588206011    
N     2.12889645782536         4.52413526233010       -0.128960371929001E-01
N     1.54508497187474         4.75528258147577        0.176679714152157    
N    0.936906572928624         4.91143625364344        0.178363616320336    
N    0.313952597646568         4.99013364214136        0.974613718741482E-01
N   -0.313952597646567         4.99013364214136        0.443145434408901E-01
N   -0.936906572928623         4.91143625364344        0.443145434408901E-01
N    -1.54508497187474         4.75528258147577        0.974613718741482E-01
N    -2.12889645782536         4.52413526233010        0.178363616320336    
N    -2.67913397489498         4.22163962751007        0.176679714152157    
N    -3.18711994874345         3.85256621387895       -0.128960371929001E-01
N    -3.64484313710706         3.42273552964344       -0.159118588206011    
N    -4.04508497187474         2.93892626146237        0.504647444651621E-01
N    -4.38153340021932         2.40876837050858        0.100759552211613    
N    -4.64888242944126         1.84062276342339       -0.143780373971206    
N    -4.84291580564315         1.24344943582428        0.105581155917814    
N    -4.96057350657239        0.626666167821523       -0.501059376931946E-01
N    -5.00000000000000        0.612323399573677E-15    0.114695121299528E-01
N    -4.96057350657239       -0.626666167821522        0.161345310247863E-02
N    -4.84291580564316        -1.24344943582427        0.114695121299528E-01
N    -4.64888242944126        -1.84062276342339       -0.501059376931946E-01
N    -4.38153340021932        -2.40876837050858        0.105581155917814    
N    -4.04508497187474        -2.93892626146236       -0.143780373971206    
N    -3.64484313710706        -3.42273552964344        0.100759552211613    
N    -3.18711994874345        -3.85256621387895        0.504647444651621E-01
N    -2.67913397489498        -4.22163962751008       -0.159118588206011    
N    -2.12889645782536        -4.52413526233010       -0.128960371929001E-01
N    -1.54508497187474        -4.75528258147577        0.176679714152157    
N   -0.936906572928623        -4.91143625364344        0.178363616320336    
N   -0.313952597646566        -4.99013364214136        0.974613718741482E-01
N    0.313952597646564        -4.99013364214136        0.443145434408901E-01
N    0.936906572928621        -4.91143625364344        0.443145434408901E-01
N     1.54508497187474        -4.75528258147577        0.974613718741482E-01
N     2.12889645782536        -4.52413526233010        0.178363616320336    
N     2.67913397489498        -4.22163962751008        0.176679714152157    
N     3.18711994874345        -3.85256621387895       -0.128960371929001E-01
N     3.64484313710706        -3.42273552964344       -0.159118588206011    
N     4.04508497187474        -2.93892626146237        0.504647444651621E-01
N     4.38153340021932        -2.40876837050858        0.100759552211613    
N     4.64888242944126        -1.84062276342339       -0.143780373971206    
N     4.84291580564315        -1.24344943582428        0.105581155917814    
N     4.96057350657239       -0.626666167821523       -0.501059376931946E-01
N     5.00000000000000       -0.122464679914735E-14    0.114695121299528E-01
          50

N     4.96057350657239        0.626666167821521       -0.520142673462176E-01
N     4.84291580564316         1.24344943582427        0.636737316866700E-01
N     4.64888242944126         1.84062276342339       -0.953767259107389E-01
N     4.38153340021932         2.40876837050858        0.131861011593490    
N     4.04508497187474         2.93892626146237       -0.135458184551152    
N     3.64484313710706         3.42273552964344        0.564669596136353E-01
N     3.18711994874345         3.85256621387895        0.933304620195818E-01
N     2.67913397489498         4.22163962751008       -0.145537683221059    
N     2.12889645782536         4.52413526233010       -0.562392591303793E-01
N     1.54508497187474         4.75528258147577        0.153855238701526    
N    0.936906572928624         4.91143625364344        0.188648454979385    
N    0.313952597646568         4.99013364214136        0.114278487652626    
N   -0.313952597646567         4.99013364214136        0.565046402395241E-01
N   -0.936906572928623         4.91143625364344        0.565046402395241E-01
N    -1.54508497187474         4.75528258147577        0.114278487652626    
N    -2.12889645782536         4.52413526233010        0.188648454979385    
N    -2.67913397489498         4.22163962751007        0.153855238701526    
N    -3.18711994874345         3.85256621387895       -0.562392591303793E-01
N    -3.64484313710706         3.42273552964344       -0.145537683221059    
N    -4.04508497187474         2.93892626146237        0.933304620195818E-01
N    -4.38153340021932         2.40876837050858        0.564669596136353E-01
N    -4.64888242944126         1.84062276342339       -0.135458184551152    
N    -4.84291580564315         1.24344943582428        0.131861011593490    
N    -4.96057350657239        0.626666167821523       -0.953767259107389E-01
N    -5.00000000000000        0.612323399573677E-15    0.636737316866700E-01
N    -4.96057350657239       -0.626666167821522       -0.520142673462176E-01
N    -4.84291580564316        -1.24344943582427        0.636737316866700E-01
N    -4.64888242944126        -1.84062276342339       -0.953767259107389E-01
N    -4.38153340021932        -2.40876837050858        0.131861011593490    
N    -4.04508497187474        -2.93892626146236       -0.135458184551152    
N    -3.64484313710706        -3.42273552964344        0.564669596136353E-01
N    -3.18711994874345        -3.85256621387895        0.933304620195818E-01
N    -2.67913397489498        -4.22163962751008       -0.145537683221059    
N    -2.12889645782536        -4.52413526233010       -0.562392591303793E-01
N    -1.54508497187474        -4.75528258147577        0.153855238701526    
N   -0.936906572928623        -4.91143625364344        0.188648454979385    
N   -0.313952597646566        -4.99013364214136        0.114278487652626    
N    0.313952597646564        -4.99013364214136        0.565046402395241E-01
N    0.936906572928621        -4.91143625364344        0.565046402395241E-01
N     1.54508497187474        -4.75528258147577        0.114278487652626    
N     2.12889645782536        -4.52413526233010        0.188648454979385    
N     2.67913397489498        -4.22163962751008        0.153855238701526    
N     3.18711994874345        -3.85256621387895       -0.562392591303793E-01
N     3.64484313710706        -3.42273552964344       -0.145537683221059    
N     4.04508497187474        -2.93892626146237        0.933304620195818E-01
N     4.38153340021932        -2.40876837050858        0.564669596136353E-01
N     4.64888242944126        -1.84062276342339       -0.135458184551152    
N     4.84291580564315        -1.24344943582428        0.131861011593490    
N     4.96057350657239       -0.626666167821523       -0.953767259107389E-01
N     5.00000000000000       -0.122464679914735E-14    0.636737316866700E-01
          50

N     4.96057350657239        0.626666167821521       -0.965211396099755E-01
N     4.84291580564316         1.24344943582427        0.105043165793036    
N     4.64888242944126         1.84062276342339       -0.125400490993124    
N     4.38153340021932         2.40876837050858        0.138602008122123    
N     4.04508497187474         2.93892626146237       -0.108974334072590    
N     3.64484313710706         3.42273552964344        0.603739513382700E-02
N     3.18711994874345         3.85256621387895        0.125263209351291    
N     2.67913397489498         4.22163962751008       -0.118937884202333    
N     2.12889645782536         4.52413526233010       -0.947625163561932E-01
N     1.54508497187474         4.75528258147577        0.124066876335058    
N    0.936906572928624         4.91143625364344        0.194574743821273    
N    0.313952597646568         4.99013364214136        0.131748203983892    
N   -0.313952597646567         4.99013364214136        0.710001928887299E-01
N   -0.936906572928623         4.91143625364344        0.710001928887299E-01
N    -1.54508497187474         4.75528258147577        0.131748203983892    
N    -2.12889645782536         4.52413526233010        0.194574743821273    
N    -2.67913397489498         4.22163962751007        0.124066876335058    
N    -3.18711994874345         3.85256621387895       -0.947625163561932E-01
N    -3.64484313710706         3.42273552964344       -0.118937884202333    
N    -4.04508497187474         2.93892626146237        0.125263209351291    
N    -4.38153340021932         2.40876837050858        0.603739513382700E-02
N    -4.64888242944126         1.84062276342339       -0.108974334072590    
N    -4.84291580564315         1.24344943582428        0.138602008122123    
N    -4.96057350657239        0.626666167821523       -0.125400490993124    
N    -5.00000000000000        0.612323399573677E-15    0.105043165793036    
N    -4.96057350657239       -0.626666167821522       -0.965211396099755E-01
N    -4.84291580564316        -1.24344943582427        0.105043165793036    
N    -4.64888242944126        -1.84062276342339       -0.125400490993124    
N    -4.38153340021932        -2.40876837050858        0.138602008122123    
N    -4.04508497187474        -2.93892626146236       -0.108974334072590    
N    -3.64484313710706        -3.42273552964344        0.603739513382700E-02
N    -3.18711994874345        -3.85256621387895        0.125263209351291    
N    -2.67913397489498        -4.22163962751008       -0.118937884202333    
N    -2.12889645782536        -4.52413526233010       -0.947625163561932E-01
N    -1.54508497187474        -4.75528258147577        0.124066876335058    
N   -0.936906572928623        -4.91143625364344        0.194574743821273    
N   -0.313952597646566        -4.99013364214136        0.131748203983892    
N    0.313952597646564        -4.99013364214136        0.710001928887299E-01
N    0.936906572928621        -4.91143625364344        0.710001928887299E-01
N     1.54508497187474        -4.75528258147577        0.131748203983892    
N     2.12889645782536        -4.52413526233010        0.194574743821273    
N     2.67913397489498        -4.22163962751008        0.124066876335058    
N     3.18711994874345        -3.85256621387895       -0.947625163561932E-01
N     3.64484313710706        -3.42273552964344       -0.118937884202333    
N     4.04508497187474        -2.93892626146237        0.125263209351291    
N     4.38153340021932        -2.40876837050858        0.603739513382700E-02
N     4.64888242944126        -1.84062276342339       -0.108974334072590    
N     4.84291580564315        -1.24344943582428        0.138602008122123    
N     4.96057350657239       -0.626666167821523       -0.125400490993124    
N     5.00000000000000       -0.122464679914735E-14    0.105043165793036    
          50

N     4.96057350657239        0.626666167821521       -0.125124354550544    
N     4.84291580564316         1.24344943582427        0.129365897690756    
N     4.64888242944126         1.84062276342339       -0.135902743646469    
N     4.38153340021932         2.40876837050858        0.125129316050762    
N     4.04508497187474         2.93892626146237       -0.681505311473360E-01
N     3.64484313710706         3.42273552964344       -0.442248793949095E-01
N     3.18711994874345         3.85256621387895        0.142791658397920    
N     2.67913397489498         4.22163962751008       -0.816967172583000E-01
N     2.12889645782536         4.52413526233010       -0.125535478961412    
N     1.54508497187474         4.75528258147577        0.883932279212722E-01
N    0.936906572928624         4.91143625364344        0.195183720224916    
N    0.313952597646568         4.99013364214136        0.149290867195510    
N   -0.313952597646567         4.99013364214136        0.879178402025617E-01
N   -0.936906572928623         4.91143625364344        0.879178402025617E-01
N    -1.54508497187474         4.75528258147577        0.149290867195510    
N    -2.12889645782536         4.52413526233010        0.195183720224916    
N    -2.67913397489498         4.22163962751007        0.883932279212722E-01
N    -3.18711994874345         3.85256621387895       -0.125535478961412    
N    -3.64484313710706         3.42273552964344       -0.816967172583000E-01
N    -4.04508497187474         2.93892626146237        0.142791658397920    
N    -4.38153340021932         2.40876837050858       -0.442248793949095E-01
N    -4.64888242944126         1.84062276342339       -0.681505311473360E-01
N    -4.84291580564315         1.24344943582428        0.125129316050762    
N    -4.96057350657239        0.626666167821523       -0.135902743646469    
N    -5.00000000000000        0.612323399573677E-15    0.129365897690756    
N    -4.96057350657239       -0.626666167821522       -0.125124354550544    
N    -4.84291580564316        -1.24344943582427        0.129365897690756    
N    -4.64888242944126        -1.84062276342339       -0.135902743646469    
N    -4.38153340021932        -2.40876837050858        0.125129316050762    
N    -4.04508497187474        -2.93892626146236       -0.681505311473360E-01
N    -3.64484313710706        -3.42273552964344       -0.442248793949095E-01
N    -3.18711994874345        -3.85256621387895        0.142791658397920    
N    -2.67913397489498        -4.22163962751008       -0.816967172583000E-01
N    -2.12889645782536        -4.52413526233010       -0.125535478961412    
N    -1.54508497187474        -4.75528258147577        0.883932279212722E-01
N   -0.936906572928623        -4.91143625364344        0.195183720224916    
N   -0.313952597646566        -4.99013364214136        0.149290867195510    
N    0.313952597646564        -4.99013364214136        0.879178402025617E-01
N    0.936906572928621        -4.91143625364344        0.879178402025617E-01
N     1.54508497187474        -4.75528258147577        0.149290867195510    
N     2.12889645782536        -4.52413526233010        0.195183720224916    
N     2.67913397489498        -4.22163962751008        0.883932279212722E-01
N     3.18711994874345        -3.85256621387895       -0.125535478961412    
N     3.64484313710706        -3.42273552964344       -0.816967172583000E-01
N     4.04508497187474        -2.93892626146237        0.142791658397920    
N     4.38153340021932        -2.40876837050858       -0.442248793949095E-01
N     4.64888242944126        -1.84062276342339       -0.681505311473360E-01
N     4.84291580564315        -1.24344943582428        0.125129316050762    
N     4.96057350657239       -0.626666167821523       -0.135902743646469    
N     5.00000000000000       -0.122464679914735E-14    0.129365897690756    
          50

N     4.96057350657239        0.626666167821521       -0.133641215597416    
N     4.84291580564316         1.24344943582427        0.133173454905473    
N     4.64888242944126         1.84062276342339       -0.125621812654372    
N     4.38153340021932         2.40876837050858        0.937033584737637E-01
N     4.04508497187474         2.93892626146237       -0.187348015358793E-01
N     3.64484313710706         3.42273552964344       -0.880326531093115E-01
N     3.18711994874345         3.85256621387895        0.144014880293280    
N     2.67913397489498         4.22163962751008       -0.372979263201131E-01
N     2.12889645782536         4.52413526233010       -0.146056557052744    
N     1.54508497187474         4.75528258147577        0.484764730833405E-01
N    0.936906572928624         4.91143625364344        0.189709710276915    
N    0.313952597646568         4.99013364214136        0.166206316976730    
N   -0.313952597646567         4.99013364214136        0.107280164461627    
N   -0.936906572928623         4.91143625364344        0.107280164461627    
N    -1.54508497187474         4.75528258147577        0.166206316976730    
N    -2.12889645782536         4.52413526233010        0.189709710276915    
N    -2.67913397489498         4.22163962751007        0.484764730833405E-01
N    -3.18711994874345         3.85256621387895       -0.146056557052744    
N    -3.64484313710706         3.42273552964344       -0.372979263201131E-01
N    -4.04508497187474         2.93892626146237        0.144014880293280    
N    -4.38153340021932         2.40876837050858       -0.880326531093115E-01
N    -4.64888242944126         1.84062276342339       -0.187348015358793E-01
N    -4.84291580564315         1.24344943582428        0.937033584737637E-01
N    -4.96057350657239        0.626666167821523       -0.125621812654372    
N    -5.00000000000000        0.612323399573677E-15    0.133173454905473    
N    -4.96057350657239       -0.626666167821522       -0.133641215597416    
N    -4.84291580564316        -1.24344943582427        0.133173454905473    
N    -4.64888242944126        -1.84062276342339       -0.125621812654372    
N    -4.38153340021932        -2.40876837050858        0.937033584737637E-01
N    -4.04508497187474        -2.93892626146236       -0.187348015358793E-01
N    -3.64484313710706        -3.42273552964344       -0.880326531093115E-01
N    -3.18711994874345        -3.85256621387895        0.144014880293280    
N    -2.67913397489498        -4.22163962751008       -0.372979263201131E-01
N    -2.12889645782536        -4.52413526233010       -0.146056557052744    
N    -1.54508497187474        -4.75528258147577        0.484764730833405E-01
N   -0.936906572928623        -4.91143625364344        0.189709710276915    
N   -0.313952597646566        -4.99013364214136        0.166206316976730    
N    0.313952597646564        -4.99013364214136        0.107280164461627    
N    0.936906572928621        -4.91143625364344        0.107280164461627    
N     1.54508497187474        -4.75528258147577        0.166206316976730    
N     2.12889645782536        -4.52413526233010        0.189709710276915    
N     2.67913397489498        -4.22163962751008        0.484764730833405E-01
N     3.18711994874345        -3.85256621387895       -0.146056557052744    
N     3.64484313710706        -3.42273552964344       -0.372979263201131E-01
N     4.04508497187474        -2.93892626146237        0.144014880293280    
N     4.38153340021932        -2.40876837050858       -0.880326531093115E-01
N     4.64888242944126        -1.84062276342339       -0.187348015358793E-01
N     4.84291580564315        -1.24344943582428        0.937033584737637E-01
N     4.96057350657239       -0.626666167821523       -0.125621812654372    
N     5.00000000000000       -0.122464679914735E-14    0.133173454905473    
          50

N     4.96057350657239        0.626666167821521       -0.121093885111093    
N     4.84291580564316         1.24344943582427        0.116230249498023    
N     4.64888242944126         1.84062276342339       -0.964566611515067E-01
N     4.38153340021932         2.40876837050858        0.491640773651833E-01
N     4.04508497187474         2.93892626146237        0.323910594253238E-01
N     3.64484313710706         3.42273552964344       -0.119915795720441    
N     3.18711994874345         3.85256621387895        0.128863127898526    
N     2.67913397489498         4.22163962751008        0.996920708817368E-02
N     2.12889645782536         4.52413526233010       -0.154524072566329    
N     1.54508497187474         4.75528258147577        0.646026544386432E-02
N    0.936906572928624         4.91143625364344        0.177678286988210    
N    0.313952597646568         4.99013364214136        0.181700232749127    
N   -0.313952597646567         4.99013364214136        0.128986965537391    
N   -0.936906572928623         4.91143625364344        0.128986965537391    
N    -1.54508497187474         4.75528258147577        0.181700232749127    
N    -2.12889645782536         4.52413526233010        0.177678286988210    
N    -2.67913397489498         4.22163962751007        0.646026544386432E-02
N    -3.18711994874345         3.85256621387895       -0.154524072566329    
N    -3.64484313710706         3.42273552964344        0.996920708817368E-02
N    -4.04508497187474         2.93892626146237        0.128863127898526    
N    -4.38153340021932         2.40876837050858       -0.119915795720441    
N    -4.64888242944126         1.84062276342339        0.323910594253238E-01
N    -4.84291580564315         1.24344943582428        0.491640773651833E-01
N    -4.96057350657239        0.626666167821523       -0.964566611515067E-01
N    -5.00000000000000        0.612323399573677E-15    0.116230249498023    
N    -4.96057350657239       -0.626666167821522       -0.121093885111093    
N    -4.84291580564316        -1.24344943582427        0.116230249498023    
N    -4.64888242944126        -1.84062276342339       -0.964566611515067E-01
N    -4.38153340021932        -2.40876837050858        0.491640773651833E-01
N    -4.04508497187474        -2.93892626146236        0.323910594253238E-01
N    -3.64484313710706        -3.42273552964344       -0.119915795720441    
N    -3.18711994874345        -3.85256621387895        0.128863127898526    
N    -2.67913397489498        -4.22163962751008        0.996920708817368E-02
N    -2.12889645782536        -4.52413526233010       -0.154524072566329    
N    -1.54508497187474        -4.75528258147577        0.646026544386432E-02
N   -0.936906572928623        -4.91143625364344        0.177678286988210    
N   -0.313952597646566        -4.99013364214136        0.181700232749127    
N    0.313952597646564        -4.99013364214136        0.128986965537391    
N    0.936906572928621        -4.91143625364344        0.128986965537391    
N     1.54508497187474        -4.75528258147577        0.181700232749127    
N     2.12889645782536        -4.52413526233010        0.177678286988210    
N     2.67913397489498        -4.22163962751008        0.646026544386432E-02
N     3.18711994874345        -3.85256621387895       -0.154524072566329    
N     3.64484313710706        -3.42273552964344        0.996920708817368E-02
N     4.04508497187474        -2.93892626146237        0.128863127898526    
N     4.38153340021932        -2.40876837050858       -0.119915795720441    
N     4.64888242944126        -1.84062276342339        0.323910594253238E-01
N     4.84291580564315        -1.24344943582428        0.491640773651833E-01
N     4.96057350657239       -0.626666167821523       -0.964566611515067E-01
N     5.00000000000000       -0.122464679914735E-14    0.116230249498023    
          50

N     4.96057350657239        0.626666167821521       -0.898059302286254E-01
N     4.84291580564316         1.24344943582427        0.815164887331333E-01
N     4.64888242944126         1.84062276342339       -0.531355312633994E-01
N     4.38153340021932         2.40876837050858       -0.179828505206025E-02
N     4.04508497187474         2.93892626146237        0.781632197956210E-01
N     3.64484313710706         3.42273552964344       -0.135928811089307    
N     3.18711994874345         3.85256621387895        0.991492966077069E-01
N     2.67913397489498         4.22163962751008        0.554189540768558E-01
N     2.12889645782536         4.52413526233010       -0.150063716194099    
N     1.54508497187474         4.75528258147577       -0.351283390785646E-01
N    0.936906572928624         4.91143625364344        0.158997328137648    
N    0.313952597646568         4.99013364214136        0.194924636994380    
N   -0.313952597646567         4.99013364214136        0.152787723446397    
N   -0.936906572928623         4.91143625364344        0.152787723446397    
N    -1.54508497187474         4.75528258147577        0.194924636994380    
N    -2.12889645782536         4.52413526233010        0.158997328137648    
N    -2.67913397489498         4.22163962751007       -0.351283390785646E-01
N    -3.18711994874345         3.85256621387895       -0.150063716194099    
N    -3.64484313710706         3.42273552964344        0.554189540768558E-01
N    -4.04508497187474         2.93892626146237        0.991492966077069E-01
N    -4.38153340021932         2.40876837050858       -0.135928811089307    
N    -4.64888242944126         1.84062276342339        0.781632197956210E-01
N    -4.84291580564315         1.24344943582428       -0.179828505206025E-02
N    -4.96057350657239        0.626666167821523       -0.531355312633994E-01
N    -5.00000000000000        0.612323399573677E-15    0.815164887331333E-01
N    -4.96057350657239       -0.626666167821522       -0.898059302286254E-01
N    -4.84291580564316        -1.24344943582427        0.815164887331333E-01
N    -4.64888242944126        -1.84062276342339       -0.531355312633994E-01
N    -4.38153340021932        -2.40876837050858       -0.179828505206025E-02
N    -4.04508497187474        -2.93892626146236        0.781632197956210E-01
N    -3.64484313710706        -3.42273552964344       -0.135928811089307    
N    -3.18711994874345        -3.85256621387895        0.991492966077069E-01
N    -2.67913397489498        -4.22163962751008        0.554189540768558E-01
N    -2.12889645782536        -4.52413526233010       -0.150063716194099    
N    -1.54508497187474        -4.75528258147577       -0.351283390785646E-01
N   -0.936906572928623        -4.91143625364344        0.158997328137648    
N   -0.313952597646566        -4.99013364214136        0.194924636994380    
N    0.313952597646564        -4.99013364214136        0.152787723446397    
N    0.936906572928621        -4.91143625364344        0.152787723446397    
N     1.54508497187474        -4.75528258147577        0.194924636994380    
N     2.12889645782536        -4.52413526233010        0.158997328137648    
N     2.67913397489498        -4.22163962751008       -0.351283390785646E-01
N     3.18711994874345        -3.85256621387895       -0.150063716194099    
N     3.64484313710706        -3.42273552964344        0.554189540768558E-01
N     4.04508497187474        -2.93892626146237        0.991492966077069E-01
N     4.38153340021932        -2.40876837050858       -0.135928811089307    
N     4.64888242944126        -1.84062276342339        0.781632197956210E-01
N     4.84291580564315        -1.24344943582428       -0.179828505206025E-02
N     4.96057350657239       -0.626666167821523       -0.531355312633994E-01
N     5.00000000000000       -0.122464679914735E-14    0.815164887331333E-01
          50

N     4.96057350657239        0.626666167821521       -0.449842830273700E-01
N     4.84291580564316         1.24344943582427        0.347150789861131E-01
N     4.64888242944126         1.84062276342339       -0.246100491459375E-02
N     4.38153340021932         2.40876837050858       -0.516375864268190E-01
N     4.04508497187474         2.93892626146237        0.112314691051981    
N     3.64484313710706         3.42273552964344       -0.134170320966679    
N     3.18711994874345         3.85256621387895        0.583953030536943E-01
N     2.67913397489498         4.22163962751008        0.944471817491467E-01
N     2.12889645782536         4.52413526233010       -0.132882768989942    
N     1.54508497187474         4.75528258147577       -0.735488933310223E-01
N    0.936906572928624         4.91143625364344        0.134030666406194    
N    0.313952597646568         4.99013364214136        0.205031835346418    
N   -0.313952597646567         4.99013364214136        0.178257959549192    
N   -0.936906572928623         4.91143625364344        0.178257959549192    
N    -1.54508497187474         4.75528258147577        0.205031835346418    
N    -2.12889645782536         4.52413526233010        0.134030666406194    
N    -2.67913397489498         4.22163962751007       -0.735488933310223E-01
N    -3.18711994874345         3.85256621387895       -0.132882768989942    
N    -3.64484313710706         3.42273552964344        0.944471817491467E-01
N    -4.04508497187474         2.93892626146237        0.583953030536943E-01
N    -4.38153340021932         2.40876837050858       -0.134170320966679    
N    -4.64888242944126         1.84062276342339        0.112314691051981    
N    -4.84291580564315         1.24344943582428       -0.516375864268190E-01
N    -4.96057350657239        0.626666167821523       -0.246100491459375E-02
N    -5.00000000000000        0.612323399573677E-15    0.347150789861131E-01
N    -4.96057350657239       -0.626666167821522       -0.449842830273700E-01
N    -4.84291580564316        -1.24344943582427        0.347150789861131E-01
N    -4.64888242944126        -1.84062276342339       -0.246100491459375E-02
N    -4.38153340021932        -2.40876837050858       -0.516375864268190E-01
N    -4.04508497187474        -2.93892626146236        0.112314691051981    
N    -3.64484313710706        -3.42273552964344       -0.134170320966679    
N    -3.18711994874345        -3.85256621387895        0.583953030536943E-01
N    -2.67913397489498        -4.22163962751008        0.944471817491467E-01
N    -2.12889645782536        -4.52413526233010       -0.132882768989942    
N    -1.54508497187474        -4.75528258147577       -0.735488933310223E-01
N   -0.936906572928623        -4.91143625364344        0.134030666406194    
N   -0.313952597646566        -4.99013364214136        0.205031835346418    
N    0.313952597646564        -4.99013364214136        0.178257959549192    
N    0.936906572928621        -4.91143625364344        0.178257959549192    
N     1.54508497187474        -4.75528258147577        0.205031835346418    
N     2.12889645782536        -4.52413526233010        0.134030666406194    
N     2.67913397489498        -4.22163962751008       -0.735488933310223E-01
N     3.18711994874345        -3.85256621387895       -0.132882768989942    
N     3.64484313710706        -3.42273552964344        0.944471817491467E-01
N     4.04508497187474        -2.93892626146237        0.583953030536943E-01
N     4.38153340021932        -2.40876837050858       -0.134170320966679    
N     4.64888242944126        -1.84062276342339        0.112314691051981    
N     4.84291580564315        -1.24344943582428       -0.516375864268190E-01
N     4.96057350657239       -0.626666167821523       -0.246100491459375E-02
N     5.00000000000000       -0.122464679914735E-14    0.347150789861131E-01
          50

N     4.96057350657239        0.626666167821521        0.613997100515964E-02
N     4.84291580564316         1.24344943582427       -0.167107404844832E-01
N     4.64888242944126         1.84062276342339        0.477494100665835E-01
N     4.38153340021932         2.40876837050858       -0.930643097393091E-01
N     4.04508497187474         2.93892626146237        0.130244149305034    
N     3.64484313710706         3.42273552964344       -0.115041619118313    
N     3.18711994874345         3.85256621387895        0.114456063852750E-01
N     2.67913397489498         4.22163962751008        0.123027456210461    
N     2.12889645782536         4.52413526233010       -0.104326729236483    
N     1.54508497187474         4.75528258147577       -0.106059153638017    
N    0.936906572928624         4.91143625364344        0.103643893761818    
N    0.313952597646568         4.99013364214136        0.211239469483135    
N   -0.313952597646567         4.99013364214136        0.204782581501719    
N   -0.936906572928623         4.91143625364344        0.204782581501719    
N    -1.54508497187474         4.75528258147577        0.211239469483135    
N    -2.12889645782536         4.52413526233010        0.103643893761818    
N    -2.67913397489498         4.22163962751007       -0.106059153638017    
N    -3.18711994874345         3.85256621387895       -0.104326729236483    
N    -3.64484313710706         3.42273552964344        0.123027456210461    
N    -4.04508497187474         2.93892626146237        0.114456063852750E-01
N    -4.38153340021932         2.40876837050858       -0.115041619118313    
N    -4.64888242944126         1.84062276342339        0.130244149305034    
N    -4.84291580564315         1.24344943582428       -0.930643097393091E-01
N    -4.96057350657239        0.626666167821523        0.477494100665835E-01
N    -5.00000000000000        0.612323399573677E-15   -0.167107404844832E-01
N    -4.96057350657239       -0.626666167821522        0.613997100515964E-02
N    -4.84291580564316        -1.24344943582427       -0.167107404844832E-01
N    -4.64888242944126        -1.84062276342339        0.477494100665835E-01
N    -4.38153340021932        -2.40876837050858       -0.930643097393091E-01
N    -4.04508497187474        -2.93892626146236        0.130244149305034    
N    -3.64484313710706        -3.42273552964344       -0.115041619118313    
N    -3.18711994874345        -3.85256621387895        0.114456063852750E-01
N    -2.67913397489498        -4.22163962751008        0.123027456210461    
N    -2.12889645782536        -4.52413526233010       -0.104326729236483    
N    -1.54508497187474        -4.75528258147577       -0.106059153638017    
N   -0.936906572928623        -4.91143625364344        0.103643893761818    
N   -0.313952597646566        -4.99013364214136        0.211239469483135    
N    0.313952597646564        -4.99013364214136        0.204782581501719    
N    0.936906572928621        -4.91143625364344        0.204782581501719    
N     1.54508497187474        -4.75528258147577        0.211239469483135    
N     2.12889645782536        -4.52413526233010        0.103643893761818    
N     2.67913397489498        -4.22163962751008       -0.106059153638017    
N     3.18711994874345        -3.85256621387895       -0.104326729236483    
N     3.64484313710706        -3.42273552964344        0.123027456210461    
N     4.04508497187474        -2.93892626146237        0.114456063852750E-01
N     4.38153340021932        -2.40876837050858       -0.115041619118313    
N     4.64888242944126        -1.84062276342339        0.130244149305034    
N     4.84291580564315        -1.24344943582428       -0.930643097393091E-01
N     4.96057350657239       -0.626666167821523        0.477494100665835E-01
N     5.00000000000000       -0.122464679914735E-14   -0.167107404844832E-01
          50

N     4.96057350657239        0.626666167821521        0.554713931184820E-01
N     4.84291580564316         1.24344943582427       -0.647005211899524E-01
N     4.64888242944126         1.84062276342339        0.898631717699714E-01
N     4.38153340021932         2.40876837050858       -0.120112148119992    
N     4.04508497187474         2.93892626146237        0.129651857338667    
N     3.64484313710706         3.42273552964344       -0.812048610577541E-01
N     3.18711994874345         3.85256621387895       -0.360920343098894E-01
N     2.67913397489498         4.22163962751008        0.138168361007654    
N     2.12889645782536         4.52413526233010       -0.668226752688937E-01
N     1.54508497187474         4.75528258147577       -0.130151852114903    
N    0.936906572928624         4.91143625364344        0.692128987103339E-01
N    0.313952597646568         4.99013364214136        0.212902650713435    
N   -0.313952597646567         4.99013364214136        0.231549455962082    
N   -0.936906572928623         4.91143625364344        0.231549455962082    
N    -1.54508497187474         4.75528258147577        0.212902650713435    
N    -2.12889645782536         4.52413526233010        0.692128987103339E-01
N    -2.67913397489498         4.22163962751007       -0.130151852114903    
N    -3.18711994874345         3.85256621387895       -0.668226752688937E-01
N    -3.64484313710706         3.42273552964344        0.138168361007654    
N    -4.04508497187474         2.93892626146237       -0.360920343098894E-01
N    -4.38153340021932         2.40876837050858       -0.812048610577541E-01
N    -4.64888242944126         1.84062276342339        0.129651857338667    
N    -4.84291580564315         1.24344943582428       -0.120112148119992    
N    -4.96057350657239        0.626666167821523        0.898631717699714E-01
N    -5.00000000000000        0.612323399573677E-15   -0.647005211899524E-01
N    -4.96057350657239       -0.626666167821522        0.554713931184820E-01
N    -4.84291580564316        -1.24344943582427       -0.647005211899524E-01
N    -4.64888242944126        -1.84062276342339        0.898631717699714E-01
N    -4.38153340021932        -2.40876837050858       -0.120112148119992    
N    -4.04508497187474        -2.93892626146236        0.129651857338667    
N    -3.64484313710706        -3.42273552964344       -0.812048610577541E-01
N    -3.18711994874345        -3.85256621387895       -0.360920343098894E-01
N    -2.67913397489498        -4.22163962751008        0.138168361007654    
N    -2.12889645782536        -4.52413526233010       -0.668226752688937E-01
N    -1.54508497187474        -4.75528258147577       -0.130151852114903    
N   -0.936906572928623        -4.91143625364344        0.692128987103339E-01
N   -0.313952597646566        -4.99013364214136        0.212902650713435    
N    0.313952597646564        -4.99013364214136        0.231549455962082    
N    0.936906572928621        -4.91143625364344        0.231549455962082    
N     1.54508497187474        -4.75528258147577        0.212902650713435    
N     2.12889645782536        -4.52413526233010        0.692128987103339E-01
N     2.67913397489498        -4.22163962751008       -0.130151852114903    
N     3.18711994874345        -3.85256621387895       -0.668226752688937E-01
N     3.64484313710706        -3.42273552964344        0.138168361007654    
N     4.04508497187474        -2.93892626146237       -0.360920343098894E-01
N     4.38153340021932        -2.40876837050858       -0.812048610577541E-01
N     4.64888242944126        -1.84062276342339        0.129651857338667    
N     4.84291580564315        -1.24344943582428       -0.120112148119992    
N     4.96057350657239       -0.626666167821523        0.898631717699714E-01
N     5.00000000000000       -0.122464679914735E-14   -0.647005211899524E-01
          50

N     4.96057350657239        0.626666167821521        0.953256426421161E-01
N     4.84291580564316         1.24344943582427       -0.101853940701372    
N     4.64888242944126         1.84062276342339        0.117589481112822    
N     4.38153340021932         2.40876837050858       -0.129001864252662    
N     4.04508497187474         2.93892626146237        0.110851957645299    
N     3.64484313710706         3.42273552964344       -0.372412547879236E-01
N     3.18711994874345         3.85256621387895       -0.785144807937258E-01
N     2.67913397489498         4.22163962751008        0.138275946586989    
N     2.12889645782536         4.52413526233010       -0.237052181362691E-01
N     1.54508497187474         4.75528258147577       -0.143795251054690    
N    0.936906572928624         4.91143625364344        0.325879687732321E-01
N    0.313952597646568         4.99013364214136        0.209587512157028    
N   -0.313952597646567         4.99013364214136        0.257556322130213    
N   -0.936906572928623         4.91143625364344        0.257556322130213    
N    -1.54508497187474         4.75528258147577        0.209587512157028    
N    -2.12889645782536         4.52413526233010        0.325879687732321E-01
N    -2.67913397489498         4.22163962751007       -0.143795251054690    
N    -3.18711994874345         3.85256621387895       -0.237052181362691E-01
N    -3.64484313710706         3.42273552964344        0.138275946586989    
N    -4.04508497187474         2.93892626146237       -0.785144807937258E-01
N    -4.38153340021932         2.40876837050858       -0.372412547879236E-01
N    -4.64888242944126         1.84062276342339        0.110851957645299    
N    -4.84291580564315         1.24344943582428       -0.129001864252662    
N    -4.96057350657239        0.626666167821523        0.117589481112822    
N    -5.00000000000000        0.612323399573677E-15   -0.101853940701372    
N    -4.96057350657239       -0.626666167821522        0.953256426421161E-01
N    -4.84291580564316        -1.24344943582427       -0.101853940701372    
N    -4.64888242944126        -1.84062276342339        0.117589481112822    
N    -4.38153340021932        -2.40876837050858       -0.129001864252662    
N    -4.04508497187474        -2.93892626146236        0.110851957645299    
N    -3.64484313710706        -3.42273552964344       -0.372412547879236E-01
N    -3.18711994874345        -3.85256621387895       -0.785144807937258E-01
N    -2.67913397489498        -4.22163962751008        0.138275946586989    
N    -2.12889645782536        -4.52413526233010       -0.237052181362691E-01
N    -1.54508497187474        -4.75528258147577       -0.143795251054690    
N   -0.936906572928623        -4.91143625364344        0.325879687732321E-01
N   -0.313952597646566        -4.99013364214136        0.209587512157028    
N    0.313952597646564        -4.99013364214136        0.257556322130213    
N    0.936906572928621        -4.91143625364344        0.257556322130213    
N     1.54508497187474        -4.75528258147577        0.209587512157028    
N     2.12889645782536        -4.52413526233010        0.325879687732321E-01
N     2.67913397489498        -4.22163962751008       -0.143795251054690    
N     3.18711994874345        -3.85256621387895       -0.237052181362691E-01
N     3.64484313710706        -3.42273552964344        0.138275946586989    
N     4.04508497187474        -2.93892626146237       -0.785144807937258E-01
N     4.38153340021932        -2.40876837050858       -0.372412547879236E-01
N     4.64888242944126        -1.84062276342339        0.110851957645299    
N     4.84291580564315        -1.24344943582428       -0.129001864252662    
N     4.96057350657239       -0.626666167821523        0.117589481112822    
N     5.00000000000000       -0.122464679914735E-14   -0.101853940701372    
          50

N     4.96057350657239        0.626666167821521        0.119620612618011    
N     4.84291580564316         1.24344943582427       -0.122567046070854    
N     4.64888242944126         1.84062276342339        0.126917810733469    
N     4.38153340021932         2.40876837050858       -0.118676141426674    
N     4.04508497187474         2.93892626146237        0.767158612784794E-01
N     3.64484313710706         3.42273552964344        0.109495724692801E-01
N     3.18711994874345         3.85256621387895       -0.110719052234020    
N     2.67913397489498         4.22163962751008        0.123373124079302    
N     2.12889645782536         4.52413526233010        0.210658888281803E-01
N     1.54508497187474         4.75528258147577       -0.145652916394606    
N    0.936906572928624         4.91143625364344       -0.399026605982047E-02
N    0.313952597646568         4.99013364214136        0.201139179085308    
N   -0.313952597646567         4.99013364214136        0.281633679402948    
N   -0.936906572928623         4.91143625364344        0.281633679402948    
N    -1.54508497187474         4.75528258147577        0.201139179085308    
N    -2.12889645782536         4.52413526233010       -0.399026605982047E-02
N    -2.67913397489498         4.22163962751007       -0.145652916394606    
N    -3.18711994874345         3.85256621387895        0.210658888281803E-01
N    -3.64484313710706         3.42273552964344        0.123373124079302    
N    -4.04508497187474         2.93892626146237       -0.110719052234020    
N    -4.38153340021932         2.40876837050858        0.109495724692801E-01
N    -4.64888242944126         1.84062276342339        0.767158612784794E-01
N    -4.84291580564315         1.24344943582428       -0.118676141426674    
N    -4.96057350657239        0.626666167821523        0.126917810733469    
N    -5.00000000000000        0.612323399573677E-15   -0.122567046070854    
N    -4.96057350657239       -0.626666167821522        0.119620612618011    
N    -4.84291580564316        -1.24344943582427       -0.122567046070854    
N    -4.64888242944126        -1.84062276342339        0.126917810733469    
N    -4.38153340021932        -2.40876837050858       -0.118676141426674    
N    -4.04508497187474        -2.93892626146236        0.767158612784794E-01
N    -3.64484313710706        -3.42273552964344        0.109495724692801E-01
N    -3.18711994874345        -3.85256621387895       -0.110719052234020    
N    -2.67913397489498        -4.22163962751008        0.123373124079302    
N    -2.12889645782536        -4.52413526233010        0.210658888281803E-01
N    -1.54508497187474        -4.75528258147577       -0.145652916394606    
N   -0.936906572928623        -4.91143625364344       -0.399026605982047E-02
N   -0.313952597646566        -4.99013364214136        0.201139179085308    
N    0.313952597646564        -4.99013364214136        0.281633679402948    
N    0.936906572928621        -4.91143625364344        0.281633679402948    
N     1.54508497187474        -4.75528258147577        0.201139179085308    
N     2.12889645782536        -4.52413526233010       -0.399026605982047E-02
N     2.67913397489498        -4.22163962751008       -0.145652916394606    
N     3.18711994874345        -3.85256621387895        0.210658888281803E-01
N     3.64484313710706        -3.42273552964344        0.123373124079302    
N     4.04508497187474        -2.93892626146237       -0.110719052234020    
N     4.38153340021932        -2.40876837050858        0.109495724692801E-01
N     4.64888242944126        -1.84062276342339        0.767158612784794E-01
N     4.84291580564315        -1.24344943582428       -0.118676141426674    
N     4.96057350657239       -0.626666167821523        0.126917810733469    
N     5.00000000000000       -0.122464679914735E-14   -0.122567046070854    
          50

N     4.96057350657239        0.626666167821521        0.124799462128377    
N     4.84291580564316         1.24344943582427       -0.123873575338382    
N     4.64888242944126         1.84062276342339        0.116698044054059    
N     4.38153340021932         2.40876837050858       -0.909283261996717E-01
N     4.04508497187474         2.93892626146237        0.322538446455441E-01
N     3.64484313710706         3.42273552964344        0.569317191582763E-01
N     3.18711994874345         3.85256621387895       -0.128839769161851    
N     2.67913397489498         4.22163962751008        0.951423585592552E-01
N     2.12889645782536         4.52413526233010        0.632739991803223E-01
N     1.54508497187474         4.75528258147577       -0.135257437429348    
N    0.936906572928624         4.91143625364344       -0.380223424720288E-01
N    0.313952597646568         4.99013364214136        0.187736333656178    
N   -0.313952597646567         4.99013364214136        0.302485420283458    
N   -0.936906572928623         4.91143625364344        0.302485420283458    
N    -1.54508497187474         4.75528258147577        0.187736333656178    
N    -2.12889645782536         4.52413526233010       -0.380223424720288E-01
N    -2.67913397489498         4.22163962751007       -0.135257437429348    
N    -3.18711994874345         3.85256621387895        0.632739991803223E-01
N    -3.64484313710706         3.42273552964344        0.951423585592552E-01
N    -4.04508497187474         2.93892626146237       -0.128839769161851    
N    -4.38153340021932         2.40876837050858        0.569317191582763E-01
N    -4.64888242944126         1.84062276342339        0.322538446455441E-01
N    -4.84291580564315         1.24344943582428       -0.909283261996717E-01
N    -4.96057350657239        0.626666167821523        0.116698044054059    
N    -5.00000000000000        0.612323399573677E-15   -0.123873575338382    
N    -4.96057350657239       -0.626666167821522        0.124799462128377    
N    -4.84291580564316        -1.24344943582427       -0.123873575338382    
N    -4.64888242944126        -1.84062276342339        0.116698044054059    
N    -4.38153340021932        -2.40876837050858       -0.909283261996717E-01
N    -4.04508497187474        -2.93892626146236        0.322538446455441E-01
N    -3.64484313710706        -3.42273552964344        0.569317191582763E-01
N    -3.18711994874345        -3.85256621387895       -0.128839769161851    
N    -2.67913397489498        -4.22163962751008        0.951423585592552E-01
N    -2.12889645782536        -4.52413526233010        0.632739991803223E-01
N    -1.54508497187474        -4.75528258147577       -0.135257437429348    
N   -0.936906572928623        -4.91143625364344       -0.380223424720288E-01
N   -0.313952597646566        -4.99013364214136        0.187736333656178    
N    0.313952597646564        -4.99013364214136        0.302485420283458    
N    0.936906572928621        -4.91143625364344        0.302485420283458    
N     1.54508497187474        -4.75528258147577        0.187736333656178    
N     2.12889645782536        -4.52413526233010       -0.380223424720288E-01
N     2.67913397489498        -4.22163962751008       -0.135257437429348    
N     3.18711994874345        -3.85256621387895        0.632739991803223E-01
N     3.64484313710706        -3.42273552964344        0.951423585592552E-01
N     4.04508497187474        -2.93892626146237       -0.128839769161851    
N     4.38153340021932        -2.40876837050858        0.569317191582763E-01
N     4.64888242944126        -1.84062276342339        0.322538446455441E-01
N     4.84291580564315        -1.24344943582428       -0.909283261996717E-01
N     4.96057350657239       -0.626666167821523        0.116698044054059    
N     5.00000000000000       -0.122464679914735E-14   -0.123873575338382    
          50

N     4.96057350657239        0.626666167821521        0.110346178528933    
N     4.84291580564316         1.24344943582427       -0.105865520601862    
N     4.64888242944126         1.84062276342339        0.887780544020305E-01
N     4.38153340021932         2.40876837050858       -0.501084899675787E-01
N     4.04508497187474         2.93892626146237       -0.161062249599045E-01
N     3.64484313710706         3.42273552964344        0.945930798168384E-01
N     3.18711994874345         3.85256621387895       -0.130741062936295    
N     2.67913397489498         4.22163962751008        0.567777831278809E-01
N     2.12889645782536         4.52413526233010        0.988652417126124E-01
N     1.54508497187474         4.75528258147577       -0.113114976825520    
N    0.936906572928624         4.91143625364344       -0.669231584326560E-01
N    0.313952597646568         4.99013364214136        0.169924447970095    
N   -0.313952597646567         4.99013364214136        0.318747737429891    
N   -0.936906572928623         4.91143625364344        0.318747737429891    
N    -1.54508497187474         4.75528258147577        0.169924447970095    
N    -2.12889645782536         4.52413526233010       -0.669231584326560E-01
N    -2.67913397489498         4.22163962751007       -0.113114976825520    
N    -3.18711994874345         3.85256621387895        0.988652417126124E-01
N    -3.64484313710706         3.42273552964344        0.567777831278809E-01
N    -4.04508497187474         2.93892626146237       -0.130741062936295    
N    -4.38153340021932         2.40876837050858        0.945930798168384E-01
N    -4.64888242944126         1.84062276342339       -0.161062249599045E-01
N    -4.84291580564315         1.24344943582428       -0.501084899675787E-01
N    -4.96057350657239        0.626666167821523        0.887780544020305E-01
N    -5.00000000000000        0.612323399573677E-15   -0.105865520601862    
N    -4.96057350657239       -0.626666167821522        0.110346178528933    
N    -4.84291580564316        -1.24344943582427       -0.105865520601862    
N    -4.64888242944126        -1.84062276342339        0.887780544020305E-01
N    -4.38153340021932        -2.40876837050858       -0.501084899675787E-01
N    -4.04508497187474        -2.93892626146236       -0.161062249599045E-01
N    -3.64484313710706        -3.42273552964344        0.945930798168384E-01
N    -3.18711994874345        -3.85256621387895       -0.130741062936295    
N    -2.67913397489498        -4.22163962751008        0.567777831278809E-01
N    -2.12889645782536        -4.52413526233010        0.988652417126124E-01
N    -1.54508497187474        -4.75528258147577       -0.113114976825520    
N   -0.936906572928623        -4.91143625364344       -0.669231584326560E-01
N   -0.313952597646566        -4.99013364214136        0.169924447970095    
N    0.313952597646564        -4.99013364214136        0.318747737429891    
N    0.936906572928621        -4.91143625364344        0.318747737429891    
N     1.54508497187474        -4.75528258147577        0.169924447970095    
N     2.12889645782536        -4.52413526233010       -0.669231584326560E-01
N     2.67913397489498        -4.22163962751008       -0.113114976825520    
N     3.18711994874345        -3.85256621387895        0.988652417126124E-01
N     3.64484313710706        -3.42273552964344        0.567777831278809E-01
N     4.04508497187474        -2.93892626146237       -0.130741062936295    
N     4.38153340021932        -2.40876837050858        0.945930798168384E-01
N     4.64888242944126        -1.84062276342339       -0.161062249599045E-01
N     4.84291580564315        -1.24344943582428       -0.501084899675787E-01
N     4.96057350657239       -0.626666167821523        0.887780544020305E-01
N     5.00000000000000       -0.122464679914735E-14   -0.105865520601862    
          50

N     4.96057350657239        0.626666167821521        0.788196730498483E-01
N     4.84291580564316         1.24344943582427       -0.716338603682651E-01
N     4.64888242944126         1.84062276342339        0.476828025153292E-01
N     4.38153340021932         2.40876837050858       -0.245307033091952E-02
N     4.04508497187474         2.93892626146237       -0.614404068468517E-01
N     3.64484313710706         3.42273552964344        0.118967285239991    
N     3.18711994874345         3.85256621387895       -0.116301777595441    
N     2.67913397489498         4.22163962751008        0.126556243297455E-01
N     2.12889645782536         4.52413526233010        0.124376317225227    
N     1.54508497187474         4.75528258147577       -0.807226572955789E-01
N    0.936906572928624         4.91143625364344       -0.882258872014619E-01
N    0.313952597646568         4.99013364214136        0.148620536461253    
N   -0.313952597646567         4.99013364214136        0.329065257342047    
N   -0.936906572928623         4.91143625364344        0.329065257342047    
N    -1.54508497187474         4.75528258147577        0.148620536461253    
N    -2.12889645782536         4.52413526233010       -0.882258872014619E-01
N    -2.67913397489498         4.22163962751007       -0.807226572955789E-01
N    -3.18711994874345         3.85256621387895        0.124376317225227    
N    -3.64484313710706         3.42273552964344        0.126556243297455E-01
N    -4.04508497187474         2.93892626146237       -0.116301777595441    
N    -4.38153340021932         2.40876837050858        0.118967285239991    
N    -4.64888242944126         1.84062276342339       -0.614404068468517E-01
N    -4.84291580564315         1.24344943582428       -0.245307033091952E-02
N    -4.96057350657239        0.626666167821523        0.476828025153292E-01
N    -5.00000000000000        0.612323399573677E-15   -0.716338603682651E-01
N    -4.96057350657239       -0.626666167821522        0.788196730498483E-01
N    -4.84291580564316        -1.24344943582427       -0.716338603682651E-01
N    -4.64888242944126        -1.84062276342339        0.476828025153292E-01
N    -4.38153340021932        -2.40876837050858       -0.245307033091952E-02
N    -4.04508497187474        -2.93892626146236       -0.614404068468517E-01
N    -3.64484313710706        -3.42273552964344        0.118967285239991    
N    -3.18711994874345        -3.85256621387895       -0.116301777595441    
N    -2.67913397489498        -4.22163962751008        0.126556243297455E-01
N    -2.12889645782536        -4.52413526233010        0.124376317225227    
N    -1.54508497187474        -4.75528258147577       -0.807226572955789E-01
N   -0.936906572928623        -4.91143625364344       -0.882258872014619E-01
N   -0.313952597646566        -4.99013364214136        0.148620536461253    
N    0.313952597646564        -4.99013364214136        0.329065257342047    
N    0.936906572928621        -4.91143625364344        0.329065257342047    
N     1.54508497187474        -4.75528258147577        0.148620536461253    
N     2.12889645782536        -4.52413526233010       -0.882258872014619E-01
N     2.67913397489498        -4.22163962751008       -0.807226572955789E-01
N     3.18711994874345        -3.85256621387895        0.124376317225227    
N     3.64484313710706        -3.42273552964344        0.126556243297455E-01
N     4.04508497187474        -2.93892626146237       -0.116301777595441    
N     4.38153340021932        -2.40876837050858        0.118967285239991    
N     4.64888242944126        -1.84062276342339       -0.614404068468517E-01
N     4.84291580564315        -1.24344943582428       -0.245307033091952E-02
N     4.96057350657239       -0.626666167821523        0.476828025153292E-01
N     5.00000000000000       -0.122464679914735E-14   -0.716338603682651E-01
          50

N     4.96057350657239        0.626666167821521        0.354083031249037E-01
N     4.84291580564316         1.24344943582427       -0.267453791794506E-01
N     4.64888242944126         1.84062276342339       -0.110950321166860E-03
N     4.38153340021932         2.40876837050858        0.448598919986245E-01
N     4.04508497187474         2.93892626146237       -0.973186400185992E-01
N     3.64484313710706         3.42273552964344        0.126904875866813    
N     3.18711994874345         3.85256621387895       -0.874476019930900E-01
N     2.67913397489498         4.22163962751008       -0.321451759114091E-01
N     2.12889645782536         4.52413526233010        0.137322781982568    
N     1.54508497187474         4.75528258147577       -0.404886143446213E-01
N    0.936906572928624         4.91143625364344       -0.998008920685531E-01
N    0.313952597646568         4.99013364214136        0.125084015661673    
N   -0.313952597646567         4.99013364214136        0.332181536764757    
N   -0.936906572928623         4.91143625364344        0.332181536764757    
N    -1.54508497187474         4.75528258147577        0.125084015661673    
N    -2.12889645782536         4.52413526233010       -0.998008920685531E-01
N    -2.67913397489498         4.22163962751007       -0.404886143446213E-01
N    -3.18711994874345         3.85256621387895        0.137322781982568    
N    -3.64484313710706         3.42273552964344       -0.321451759114091E-01
N    -4.04508497187474         2.93892626146237       -0.874476019930900E-01
N    -4.38153340021932         2.40876837050858        0.126904875866813    
N    -4.64888242944126         1.84062276342339       -0.973186400185992E-01
N    -4.84291580564315         1.24344943582428        0.448598919986245E-01
N    -4.96057350657239        0.626666167821523       -0.110950321166860E-03
N    -5.00000000000000        0.612323399573677E-15   -0.267453791794506E-01
N    -4.96057350657239       -0.626666167821522        0.354083031249037E-01
N    -4.84291580564316        -1.24344943582427       -0.267453791794506E-01
N    -4.64888242944126        -1.84062276342339       -0.110950321166860E-03
N    -4.38153340021932        -2.40876837050858        0.448598919986245E-01
N    -4.04508497187474        -2.93892626146236       -0.973186400185992E-01
N    -3.64484313710706        -3.42273552964344        0.126904875866813    
N    -3.18711994874345        -3.85256621387895       -0.874476019930900E-01
N    -2.67913397489498        -4.22163962751008       -0.321451759114091E-01
N    -2.12889645782536        -4.52413526233010        0.137322781982568    
N    -1.54508497187474        -4.75528258147577       -0.404886143446213E-01
N   -0.936906572928623        -4.91143625364344       -0.998008920685531E-01
N   -0.313952597646566        -4.99013364214136        0.125084015661673    
N    0.313952597646564        -4.99013364214136        0.332181536764757    
N    0.936906572928621        -4.91143625364344        0.332181536764757    
N     1.54508497187474        -4.75528258147577        0.125084015661673    
N     2.12889645782536        -4.52413526233010       -0.998008920685531E-01
N     2.67913397489498        -4.22163962751008       -0.404886143446213E-01
N     3.18711994874345        -3.85256621387895        0.137322781982568    
N     3.64484313710706        -3.42273552964344       -0.321451759114091E-01
N     4.04508497187474        -2.93892626146237       -0.874476019930900E-01
N     4.38153340021932        -2.40876837050858        0.126904875866813    
N     4.64888242944126        -1.84062276342339       -0.973186400185992E-01
N     4.84291580564315        -1.24344943582428        0.448598919986245E-01
N     4.96057350657239       -0.626666167821523       -0.110950321166860E-03
N     5.00000000000000       -0.122464679914735E-14   -0.267453791794506E-01
          50

N     4.96057350657239        0.626666167821521       -0.129187875232834E-01
N     4.84291580564316         1.24344943582427        0.216569723248037E-01
N     4.64888242944126         1.84062276342339       -0.471891191347798E-01
N     4.38153340021932         2.40876837050858        0.847875506965805E-01
N     4.04508497187474         2.93892626146237       -0.118721044368314    
N     3.64484313710706         3.42273552964344        0.117500257721815    
N     3.18711994874345         3.85256621387895       -0.479218728516125E-01
N     2.67913397489498         4.22163962751008       -0.724200290474184E-01
N     2.12889645782536         4.52413526233010        0.136501266032156    
N     1.54508497187474         4.75528258147577        0.444557042122843E-02
N    0.936906572928624         4.91143625364344       -0.100070234427707    
N    0.313952597646568         4.99013364214136        0.100850933371262    
N   -0.313952597646567         4.99013364214136        0.327039143023626    
N   -0.936906572928623         4.91143625364344        0.327039143023626    
N    -1.54508497187474         4.75528258147577        0.100850933371262    
N    -2.12889645782536         4.52413526233010       -0.100070234427707    
N    -2.67913397489498         4.22163962751007        0.444557042122843E-02
N    -3.18711994874345         3.85256621387895        0.136501266032156    
N    -3.64484313710706         3.42273552964344       -0.724200290474184E-01
N    -4.04508497187474         2.93892626146237       -0.479218728516125E-01
N    -4.38153340021932         2.40876837050858        0.117500257721815    
N    -4.64888242944126         1.84062276342339       -0.118721044368314    
N    -4.84291580564315         1.24344943582428        0.847875506965805E-01
N    -4.96057350657239        0.626666167821523       -0.471891191347798E-01
N    -5.00000000000000        0.612323399573677E-15    0.216569723248037E-01
N    -4.96057350657239       -0.626666167821522       -0.129187875232834E-01
N    -4.84291580564316        -1.24344943582427        0.216569723248037E-01
N    -4.64888242944126        -1.84062276342339       -0.471891191347798E-01
N    -4.38153340021932        -2.40876837050858        0.847875506965805E-01
N    -4.04508497187474        -2.93892626146236       -0.118721044368314    
N    -3.64484313710706        -3.42273552964344        0.117500257721815    
N    -3.18711994874345        -3.85256621387895       -0.479218728516125E-01
N    -2.67913397489498        -4.22163962751008       -0.724200290474184E-01
N    -2.12889645782536        -4.52413526233010        0.136501266032156    
N    -1.54508497187474        -4.75528258147577        0.444557042122843E-02
N   -0.936906572928623        -4.91143625364344       -0.100070234427707    
N   -0.313952597646566        -4.99013364214136        0.100850933371262    
N    0.313952597646564        -4.99013364214136        0.327039143023626    
N    0.936906572928621        -4.91143625364344        0.327039143023626    
N     1.54508497187474        -4.75528258147577        0.100850933371262    
N     2.12889645782536        -4.52413526233010       -0.100070234427707    
N     2.67913397489498        -4.22163962751008        0.444557042122843E-02
N     3.18711994874345        -3.85256621387895        0.136501266032156    
N     3.64484313710706        -3.42273552964344       -0.724200290474184E-01
N     4.04508497187474        -2.93892626146237       -0.479218728516125E-01
N     4.38153340021932        -2.40876837050858        0.117500257721815    
N     4.64888242944126        -1.84062276342339       -0.118721044368314    
N     4.84291580564315        -1.24344943582428        0.847875506965805E-01
N     4.96057350657239       -0.626666167821523       -0.471891191347798E-01
N     5.00000000000000       -0.122464679914735E-14    0.216569723248037E-01
          50

N     4.96057350657239        0.626666167821521       -0.585255457980255E-01
N     4.84291580564316         1.24344943582427        0.659856465684125E-01
N     4.64888242944126         1.84062276342339       -0.863458365242650E-01
N     4.38153340021932         2.40876837050858        0.111469768404899    
N     4.04508497187474         2.93892626146237       -0.122748747355814    
N     3.64484313710706         3.42273552964344        0.922135709202204E-01
N     3.18711994874345         3.85256621387895       -0.281890779686669E-02
N     2.67913397489498         4.22163962751008       -0.103446699097205    
N     2.12889645782536         4.52413526233010        0.122165923553776    
N     1.54508497187474         4.75528258147577        0.504693684068962E-01
N    0.936906572928624         4.91143625364344       -0.881963197481180E-01
N    0.313952597646568         4.99013364214136        0.776322968974418E-01
N   -0.313952597646567         4.99013364214136        0.312882708669633    
N   -0.936906572928623         4.91143625364344        0.312882708669633    
N    -1.54508497187474         4.75528258147577        0.776322968974418E-01
N    -2.12889645782536         4.52413526233010       -0.881963197481180E-01
N    -2.67913397489498         4.22163962751007        0.504693684068962E-01
N    -3.18711994874345         3.85256621387895        0.122165923553776    
N    -3.64484313710706         3.42273552964344       -0.103446699097205    
N    -4.04508497187474         2.93892626146237       -0.281890779686669E-02
N    -4.38153340021932         2.40876837050858        0.922135709202204E-01
N    -4.64888242944126         1.84062276342339       -0.122748747355814    
N    -4.84291580564315         1.24344943582428        0.111469768404899    
N    -4.96057350657239        0.626666167821523       -0.863458365242650E-01
N    -5.00000000000000        0.612323399573677E-15    0.659856465684125E-01
N    -4.96057350657239       -0.626666167821522       -0.585255457980255E-01
N    -4.84291580564316        -1.24344943582427        0.659856465684125E-01
N    -4.64888242944126        -1.84062276342339       -0.863458365242650E-01
N    -4.38153340021932        -2.40876837050858        0.111469768404899    
N    -4.04508497187474        -2.93892626146236       -0.122748747355814    
N    -3.64484313710706        -3.42273552964344        0.922135709202204E-01
N    -3.18711994874345        -3.85256621387895       -0.281890779686669E-02
N    -2.67913397489498        -4.22163962751008       -0.103446699097205    
N    -2.12889645782536        -4.52413526233010        0.122165923553776    
N    -1.54508497187474        -4.75528258147577        0.504693684068962E-01
N   -0.936906572928623        -4.91143625364344       -0.881963197481180E-01
N   -0.313952597646566        -4.99013364214136        0.776322968974418E-01
N    0.313952597646564        -4.99013364214136        0.312882708669633    
N    0.936906572928621        -4.91143625364344        0.312882708669633    
N     1.54508497187474        -4.75528258147577        0.776322968974418E-01
N     2.12889645782536        -4.52413526233010       -0.881963197481180E-01
N     2.67913397489498        -4.22163962751008        0.504693684068962E-01
N     3.18711994874345        -3.85256621387895        0.122165923553776    
N     3.64484313710706        -3.42273552964344       -0.103446699097205    
N     4.04508497187474        -2.93892626146237       -0.281890779686669E-02
N     4.38153340021932        -2.40876837050858        0.922135709202204E-01
N     4.64888242944126        -1.84062276342339       -0.122748747355814    
N     4.84291580564315        -1.24344943582428        0.111469768404899    
N     4.96057350657239       -0.626666167821523       -0.863458365242650E-01
N     5.00000000000000       -0.122464679914735E-14    0.659856465684125E-01
          50

N     4.96057350657239        0.626666167821521       -0.943108582755658E-01
N     4.84291580564316         1.24344943582427        0.993934833285665E-01
N     4.64888242944126         1.84062276342339       -0.111683561560976    
N     4.38153340021932         2.40876837050858        0.121091277614575    
N     4.04508497187474         2.93892626146237       -0.109026871115564    
N     3.64484313710706         3.42273552964344        0.546682394647959E-01
N     3.18711994874345         3.85256621387895        0.420639122462898E-01
N     2.67913397489498         4.22163962751008       -0.121550642231480    
N     2.12889645782536         4.52413526233010        0.960516188072190E-01
N     1.54508497187474         4.75528258147577        0.938332111725794E-01
N    0.936906572928624         4.91143625364344       -0.642232764481012E-01
N    0.313952597646568         4.99013364214136        0.571812235260431E-01
N   -0.313952597646567         4.99013364214136        0.289356814333832    
N   -0.936906572928623         4.91143625364344        0.289356814333832    
N    -1.54508497187474         4.75528258147577        0.571812235260431E-01
N    -2.12889645782536         4.52413526233010       -0.642232764481012E-01
N    -2.67913397489498         4.22163962751007        0.938332111725794E-01
N    -3.18711994874345         3.85256621387895        0.960516188072190E-01
N    -3.64484313710706         3.42273552964344       -0.121550642231480    
N    -4.04508497187474         2.93892626146237        0.420639122462898E-01
N    -4.38153340021932         2.40876837050858        0.546682394647959E-01
N    -4.64888242944126         1.84062276342339       -0.109026871115564    
N    -4.84291580564315         1.24344943582428        0.121091277614575    
N    -4.96057350657239        0.626666167821523       -0.111683561560976    
N    -5.00000000000000        0.612323399573677E-15    0.993934833285665E-01
N    -4.96057350657239       -0.626666167821522       -0.943108582755658E-01
N    -4.84291580564316        -1.24344943582427        0.993934833285665E-01
N    -4.64888242944126        -1.84062276342339       -0.111683561560976    
N    -4.38153340021932        -2.40876837050858        0.121091277614575    
N    -4.04508497187474        -2.93892626146236       -0.109026871115564    
N    -3.64484313710706        -3.42273552964344        0.546682394647959E-01
N    -3.18711994874345        -3.85256621387895        0.420639122462898E-01
N    -2.67913397489498        -4.22163962751008       -0.121550642231480    
N    -2.12889645782536        -4.52413526233010        0.960516188072190E-01
N    -1.54508497187474        -4.75528258147577        0.938332111725794E-01
N   -0.936906572928623        -4.91143625364344       -0.642232764481012E-01
N   -0.313952597646566        -4.99013364214136        0.571812235260431E-01
N    0.313952597646564        -4.99013364214136        0.289356814333832    
N    0.936906572928621        -4.91143625364344        0.289356814333832    
N     1.54508497187474        -4.75528258147577        0.571812235260431E-01
N     2.12889645782536        -4.52413526233010       -0.642232764481012E-01
N     2.67913397489498        -4.22163962751008        0.938332111725794E-01
N     3.18711994874345        -3.85256621387895        0.960516188072190E-01
N     3.64484313710706        -3.42273552964344       -0.121550642231480    
N     4.04508497187474        -2.93892626146237        0.420639122462898E-01
N     4.38153340021932        -2.40876837050858        0.546682394647959E-01
N     4.64888242944126        -1.84062276342339       -0.109026871115564    
N     4.84291580564315        -1.24344943582428        0.121091277614575    
N     4.96057350657239       -0.626666167821523       -0.111683561560976    
N     5.00000000000000       -0.122464679914735E-14    0.993934833285665E-01
          50

N     4.96057350657239        0.626666167821521       -0.114809931340551    
N     4.84291580564316         1.24344943582427        0.116827667983803    
N     4.64888242944126         1.84062276342339       -0.119500036469668    
N     4.38153340021932         2.40876837050858        0.112431005332307    
N     4.04508497187474         2.93892626146237       -0.797417833560538E-01
N     3.64484313710706         3.42273552964344        0.101499434200667E-01
N     3.18711994874345         3.85256621387895        0.809736397563440E-01
N     2.67913397489498         4.22163962751008       -0.124556405084875    
N     2.12889645782536         4.52413526233010        0.612327858509902E-01
N     1.54508497187474         4.75528258147577        0.131012918581591    
N    0.936906572928624         4.91143625364344       -0.291520763004957E-01
N    0.313952597646568         4.99013364214136        0.411377751832506E-01
N   -0.313952597646567         4.99013364214136        0.256589530773012    
N   -0.936906572928623         4.91143625364344        0.256589530773012    
N    -1.54508497187474         4.75528258147577        0.411377751832506E-01
N    -2.12889645782536         4.52413526233010       -0.291520763004957E-01
N    -2.67913397489498         4.22163962751007        0.131012918581591    
N    -3.18711994874345         3.85256621387895        0.612327858509902E-01
N    -3.64484313710706         3.42273552964344       -0.124556405084875    
N    -4.04508497187474         2.93892626146237        0.809736397563440E-01
N    -4.38153340021932         2.40876837050858        0.101499434200667E-01
N    -4.64888242944126         1.84062276342339       -0.797417833560538E-01
N    -4.84291580564315         1.24344943582428        0.112431005332307    
N    -4.96057350657239        0.626666167821523       -0.119500036469668    
N    -5.00000000000000        0.612323399573677E-15    0.116827667983803    
N    -4.96057350657239       -0.626666167821522       -0.114809931340551    
N    -4.84291580564316        -1.24344943582427        0.116827667983803    
N    -4.64888242944126        -1.84062276342339       -0.119500036469668    
N    -4.38153340021932        -2.40876837050858        0.112431005332307    
N    -4.04508497187474        -2.93892626146236       -0.797417833560538E-01
N    -3.64484313710706        -3.42273552964344        0.101499434200667E-01
N    -3.18711994874345        -3.85256621387895        0.809736397563440E-01
N    -2.67913397489498        -4.22163962751008       -0.124556405084875    
N    -2.12889645782536        -4.52413526233010        0.612327858509902E-01
N    -1.54508497187474        -4.75528258147577        0.131012918581591    
N   -0.936906572928623        -4.91143625364344       -0.291520763004957E-01
N   -0.313952597646566        -4.99013364214136        0.411377751832506E-01
N    0.313952597646564        -4.99013364214136        0.256589530773012    
N    0.936906572928621        -4.91143625364344        0.256589530773012    
N     1.54508497187474        -4.75528258147577        0.411377751832506E-01
N     2.12889645782536        -4.52413526233010       -0.291520763004957E-01
N     2.67913397489498        -4.22163962751008        0.131012918581591    
N     3.18711994874345        -3.85256621387895        0.612327858509902E-01
N     3.64484313710706        -3.42273552964344       -0.124556405084875    
N     4.04508497187474        -2.93892626146237        0.809736397563440E-01
N     4.38153340021932        -2.40876837050858        0.101499434200667E-01
N     4.64888242944126        -1.84062276342339       -0.797417833560538E-01
N     4.84291580564315        -1.24344943582428        0.112431005332307    
N     4.96057350657239       -0.626666167821523       -0.119500036469668    
N     5.00000000000000       -0.122464679914735E-14    0.116827667983803    
          50

N     4.96057350657239        0.626666167821521       -0.117025005601764    
N     4.84291580564316         1.24344943582427        0.115790920084532    
N     4.64888242944126         1.84062276342339       -0.108828710992189    
N     4.38153340021932         2.40876837050858        0.870186482957115E-01
N     4.04508497187474         2.93892626146237       -0.393077737439515E-01
N     3.64484313710706         3.42273552964344       -0.351252576626646E-01
N     3.18711994874345         3.85256621387895        0.108952016975776    
N     2.67913397489498         4.22163962751008       -0.112065415058683    
N     2.12889645782536         4.52413526233010        0.218257970087890E-01
N     1.54508497187474         4.75528258147577        0.159071168203571    
N    0.936906572928624         4.91143625364344        0.150648052109297E-01
N    0.313952597646568         4.99013364214136        0.308641585308156E-01
N   -0.313952597646567         4.99013364214136        0.215252145948242    
N   -0.936906572928623         4.91143625364344        0.215252145948242    
N    -1.54508497187474         4.75528258147577        0.308641585308156E-01
N    -2.12889645782536         4.52413526233010        0.150648052109297E-01
N    -2.67913397489498         4.22163962751007        0.159071168203571    
N    -3.18711994874345         3.85256621387895        0.218257970087890E-01
N    -3.64484313710706         3.42273552964344       -0.112065415058683    
N    -4.04508497187474         2.93892626146237        0.108952016975776    
N    -4.38153340021932         2.40876837050858       -0.351252576626646E-01
N    -4.64888242944126         1.84062276342339       -0.393077737439515E-01
N    -4.84291580564315         1.24344943582428        0.870186482957115E-01
N    -4.96057350657239        0.626666167821523       -0.108828710992189    
N    -5.00000000000000        0.612323399573677E-15    0.115790920084532    
N    -4.96057350657239       -0.626666167821522       -0.117025005601764    
N    -4.84291580564316        -1.24344943582427        0.115790920084532    
N    -4.64888242944126        -1.84062276342339       -0.108828710992189    
N    -4.38153340021932        -2.40876837050858        0.870186482957115E-01
N    -4.04508497187474        -2.93892626146236       -0.393077737439515E-01
N    -3.64484313710706        -3.42273552964344       -0.351252576626646E-01
N    -3.18711994874345        -3.85256621387895        0.108952016975776    
N    -2.67913397489498        -4.22163962751008       -0.112065415058683    
N    -2.12889645782536        -4.52413526233010        0.218257970087890E-01
N    -1.54508497187474        -4.75528258147577        0.159071168203571    
N   -0.936906572928623        -4.91143625364344        0.150648052109297E-01
N   -0.313952597646566        -4.99013364214136        0.308641585308156E-01
N    0.313952597646564        -4.99013364214136        0.215252145948242    
N    0.936906572928621        -4.91143625364344        0.215252145948242    
N     1.54508497187474        -4.75528258147577        0.308641585308156E-01
N     2.12889645782536        -4.52413526233010        0.150648052109297E-01
N     2.67913397489498        -4.22163962751008        0.159071168203571    
N     3.18711994874345        -3.85256621387895        0.218257970087890E-01
N     3.64484313710706        -3.42273552964344       -0.112065415058683    
N     4.04508497187474        -2.93892626146237        0.108952016975776    
N     4.38153340021932        -2.40876837050858       -0.351252576626646E-01
N     4.64888242944126        -1.84062276342339       -0.393077737439515E-01
N     4.84291580564315        -1.24344943582428        0.870186482957115E-01
N     4.96057350657239       -0.626666167821523       -0.108828710992189    
N     5.00000000000000       -0.122464679914735E-14    0.115790920084532    
          50

N     4.96057350657239        0.626666167821521       -0.100859664773759    
N     4.84291580564316         1.24344943582427        0.966956268483931E-01
N     4.64888242944126         1.84062276342339       -0.815536731773169E-01
N     4.38153340021932         2.40876837050858        0.488779271615623E-01
N     4.04508497187474         2.93892626146237        0.628776489869046E-02
N     3.64484313710706         3.42273552964344       -0.748729308616981E-01
N     3.18711994874345         3.85256621387895        0.122489222909555    
N     2.67913397489498         4.22163962751008       -0.855203447756083E-01
N     2.12889645782536         4.52413526233010       -0.174381839012099E-01
N     1.54508497187474         4.75528258147577        0.175975781352781    
N    0.936906572928624         4.91143625364344        0.656164965713666E-01
N    0.313952597646568         4.99013364214136        0.272859670010167E-01
N   -0.313952597646567         4.99013364214136        0.166586178359344    
N   -0.936906572928623         4.91143625364344        0.166586178359344    
N    -1.54508497187474         4.75528258147577        0.272859670010167E-01
N    -2.12889645782536         4.52413526233010        0.656164965713666E-01
N    -2.67913397489498         4.22163962751007        0.175975781352781    
N    -3.18711994874345         3.85256621387895       -0.174381839012099E-01
N    -3.64484313710706         3.42273552964344       -0.855203447756083E-01
N    -4.04508497187474         2.93892626146237        0.122489222909555    
N    -4.38153340021932         2.40876837050858       -0.748729308616981E-01
N    -4.64888242944126         1.84062276342339        0.628776489869046E-02
N    -4.84291580564315         1.24344943582428        0.488779271615623E-01
N    -4.96057350657239        0.626666167821523       -0.815536731773169E-01
N    -5.00000000000000        0.612323399573677E-15    0.966956268483931E-01
N    -4.96057350657239       -0.626666167821522       -0.100859664773759    
N    -4.84291580564316        -1.24344943582427        0.966956268483931E-01
N    -4.64888242944126        -1.84062276342339       -0.815536731773169E-01
N    -4.38153340021932        -2.40876837050858        0.488779271615623E-01
N    -4.04508497187474        -2.93892626146236        0.628776489869046E-02
N    -3.64484313710706        -3.42273552964344       -0.748729308616981E-01
N    -3.18711994874345        -3.85256621387895        0.122489222909555    
N    -2.67913397489498        -4.22163962751008       -0.855203447756083E-01
N    -2.12889645782536        -4.52413526233010       -0.174381839012099E-01
N    -1.54508497187474        -4.75528258147577        0.175975781352781    
N   -0.936906572928623        -4.91143625364344        0.656164965713666E-01
N   -0.313952597646566        -4.99013364214136        0.272859670010167E-01
N    0.313952597646564        -4.99013364214136        0.166586178359344    
N    0.936906572928621        -4.91143625364344        0.166586178359344    
N     1.54508497187474        -4.75528258147577        0.272859670010167E-01
N     2.12889645782536        -4.52413526233010        0.656164965713666E-01
N     2.67913397489498        -4.22163962751008        0.175975781352781    
N     3.18711994874345        -3.85256621387895       -0.174381839012099E-01
N     3.64484313710706        -3.42273552964344       -0.855203447756083E-01
N     4.04508497187474        -2.93892626146237        0.122489222909555    
N     4.38153340021932        -2.40876837050858       -0.748729308616981E-01
N     4.64888242944126        -1.84062276342339        0.628776489869046E-02
N     4.84291580564315        -1.24344943582428        0.488779271615623E-01
N     4.96057350657239       -0.626666167821523       -0.815536731773169E-01
N     5.00000000000000       -0.122464679914735E-14    0.966956268483931E-01
          50

N     4.96057350657239        0.626666167821521       -0.690944158964609E-01
N     4.84291580564316         1.24344943582427        0.627612078104681E-01
N     4.64888242944126         1.84062276342339       -0.420861107675763E-01
N     4.38153340021932         2.40876837050858        0.389809672294485E-02
N     4.04508497187474         2.93892626146237        0.503647015514692E-01
N     3.64484313710706         3.42273552964344       -0.103612525963528    
N     3.18711994874345         3.85256621387895        0.119992798786354    
N     2.67913397489498         4.22163962751008       -0.480420808218828E-01
N     2.12889645782536         4.52413526233010       -0.517259113156616E-01
N     1.54508497187474         4.75528258147577        0.180836402689287    
N    0.936906572928624         4.91143625364344        0.119013475025664    
N    0.313952597646568         4.99013364214136        0.307568256297907E-01
N   -0.313952597646567         4.99013364214136        0.112390328600898    
N   -0.936906572928623         4.91143625364344        0.112390328600898    
N    -1.54508497187474         4.75528258147577        0.307568256297907E-01
N    -2.12889645782536         4.52413526233010        0.119013475025664    
N    -2.67913397489498         4.22163962751007        0.180836402689287    
N    -3.18711994874345         3.85256621387895       -0.517259113156616E-01
N    -3.64484313710706         3.42273552964344       -0.480420808218828E-01
N    -4.04508497187474         2.93892626146237        0.119992798786354    
N    -4.38153340021932         2.40876837050858       -0.103612525963528    
N    -4.64888242944126         1.84062276342339        0.503647015514692E-01
N    -4.84291580564315         1.24344943582428        0.389809672294485E-02
N    -4.96057350657239        0.626666167821523       -0.420861107675763E-01
N    -5.00000000000000        0.612323399573677E-15    0.627612078104681E-01
N    -4.96057350657239       -0.626666167821522       -0.690944158964609E-01
N    -4.84291580564316        -1.24344943582427        0.627612078104681E-01
N    -4.64888242944126        -1.84062276342339       -0.420861107675763E-01
N    -4.38153340021932        -2.40876837050858        0.389809672294485E-02
N    -4.04508497187474        -2.93892626146236        0.503647015514692E-01
N    -3.64484313710706        -3.42273552964344       -0.103612525963528    
N    -3.18711994874345        -3.85256621387895        0.119992798786354    
N    -2.67913397489498        -4.22163962751008       -0.480420808218828E-01
N    -2.12889645782536        -4.52413526233010       -0.517259113156616E-01
N    -1.54508497187474        -4.75528258147577        0.180836402689287    
N   -0.936906572928623        -4.91143625364344        0.119013475025664    
N   -0.313952597646566        -4.99013364214136        0.307568256297907E-01
N    0.313952597646564        -4.99013364214136        0.112390328600898    
N    0.936906572928621        -4.91143625364344        0.112390328600898    
N     1.54508497187474        -4.75528258147577        0.307568256297907E-01
N     2.12889645782536        -4.52413526233010        0.119013475025664    
N     2.67913397489498        -4.22163962751008        0.180836402689287    
N     3.18711994874345        -3.85256621387895       -0.517259113156616E-01
N     3.64484313710706        -3.42273552964344       -0.480420808218828E-01
N     4.04508497187474        -2.93892626146237        0.119992798786354    
N     4.38153340021932        -2.40876837050858       -0.103612525963528    
N     4.64888242944126        -1.84062276342339        0.503647015514692E-01
N     4.84291580564315        -1.24344943582428        0.389809672294485E-02
N     4.96057350657239       -0.626666167821523       -0.420861107675763E-01
N     5.00000000000000       -0.122464679914735E-14    0.627612078104681E-01
          50

N     4.96057350657239        0.626666167821521       -0.269134915544644E-01
N     4.84291580564316         1.24344943582427        0.194764769008577E-01
N     4.64888242944126         1.84062276342339        0.334333390106277E-02
N     4.38153340021932         2.40876837050858       -0.410691208276307E-01
N     4.04508497187474         2.93892626146237        0.865272214865267E-01
N     3.64484313710706         3.42273552964344       -0.117427601748819    
N     3.18711994874345         3.85256621387895        0.102006667360068    
N     2.67913397489498         4.22163962751008       -0.405402144766256E-02
N     2.12889645782536         4.52413526233010       -0.766438602844847E-01
N     1.54508497187474         4.75528258147577        0.174027689358808    
N    0.936906572928624         4.91143625364344        0.171343641746330    
N    0.313952597646568         4.99013364214136        0.409637681546981E-01
N   -0.313952597646567         4.99013364214136        0.549625511774754E-01
N   -0.936906572928623         4.91143625364344        0.549625511774754E-01
N    -1.54508497187474         4.75528258147577        0.409637681546981E-01
N    -2.12889645782536         4.52413526233010        0.171343641746330    
N    -2.67913397489498         4.22163962751007        0.174027689358808    
N    -3.18711994874345         3.85256621387895       -0.766438602844847E-01
N    -3.64484313710706         3.42273552964344       -0.405402144766256E-02
N    -4.04508497187474         2.93892626146237        0.102006667360068    
N    -4.38153340021932         2.40876837050858       -0.117427601748819    
N    -4.64888242944126         1.84062276342339        0.865272214865267E-01
N    -4.84291580564315         1.24344943582428       -0.410691208276307E-01
N    -4.96057350657239        0.626666167821523        0.334333390106277E-02
N    -5.00000000000000        0.612323399573677E-15    0.194764769008577E-01
N    -4.96057350657239       -0.626666167821522       -0.269134915544644E-01
N    -4.84291580564316        -1.24344943582427        0.194764769008577E-01
N    -4.64888242944126        -1.84062276342339        0.334333390106277E-02
N    -4.38153340021932        -2.40876837050858       -0.410691208276307E-01
N    -4.04508497187474        -2.93892626146236        0.865272214865267E-01
N    -3.64484313710706        -3.42273552964344       -0.117427601748819    
N    -3.18711994874345        -3.85256621387895        0.102006667360068    
N    -2.67913397489498        -4.22163962751008       -0.405402144766256E-02
N    -2.12889645782536        -4.52413526233010       -0.766438602844847E-01
N    -1.54508497187474        -4.75528258147577        0.174027689358808    
N   -0.936906572928623        -4.91143625364344        0.171343641746330    
N   -0.313952597646566        -4.99013364214136        0.409637681546981E-01
N    0.313952597646564        -4.99013364214136        0.549625511774754E-01
N    0.936906572928621        -4.91143625364344        0.549625511774754E-01
N     1.54508497187474        -4.75528258147577        0.409637681546981E-01
N     2.12889645782536        -4.52413526233010        0.171343641746330    
N     2.67913397489498        -4.22163962751008        0.174027689358808    
N     3.18711994874345        -3.85256621387895       -0.766438602844847E-01
N     3.64484313710706        -3.42273552964344       -0.405402144766256E-02
N     4.04508497187474        -2.93892626146237        0.102006667360068    
N     4.38153340021932        -2.40876837050858       -0.117427601748819    
N     4.64888242944126        -1.84062276342339        0.865272214865267E-01
N     4.84291580564315        -1.24344943582428       -0.410691208276307E-01
N     4.96057350657239       -0.626666167821523        0.334333390106277E-02
N     5.00000000000000       -0.122464679914735E-14    0.194764769008577E-01
          50

N     4.96057350657239        0.626666167821521        0.189373934336099E-01
N     4.84291580564316         1.24344943582427       -0.262839984157293E-01
N     4.64888242944126         1.84062276342339        0.476635954431188E-01
N     4.38153340021932         2.40876837050858       -0.792493310946562E-01
N     4.04508497187474         2.93892626146237        0.109594657604056    
N     3.64484313710706         3.42273552964344       -0.114506671370131    
N     3.18711994874345         3.85256621387895        0.711477794781533E-01
N     2.67913397489498         4.22163962751008        0.412637157474060E-01
N     2.12889645782536         4.52413526233010       -0.887464551727016E-01
N     1.54508497187474         4.75528258147577        0.157178012402405    
N    0.936906572928624         4.91143625364344        0.218585493537235    
N    0.313952597646568         4.99013364214136        0.568886700943518E-01
N   -0.313952597646567         4.99013364214136       -0.300416497031701E-02
N   -0.936906572928623         4.91143625364344       -0.300416497031701E-02
N    -1.54508497187474         4.75528258147577        0.568886700943518E-01
N    -2.12889645782536         4.52413526233010        0.218585493537235    
N    -2.67913397489498         4.22163962751007        0.157178012402405    
N    -3.18711994874345         3.85256621387895       -0.887464551727016E-01
N    -3.64484313710706         3.42273552964344        0.412637157474060E-01
N    -4.04508497187474         2.93892626146237        0.711477794781533E-01
N    -4.38153340021932         2.40876837050858       -0.114506671370131    
N    -4.64888242944126         1.84062276342339        0.109594657604056    
N    -4.84291580564315         1.24344943582428       -0.792493310946562E-01
N    -4.96057350657239        0.626666167821523        0.476635954431188E-01
N    -5.00000000000000        0.612323399573677E-15   -0.262839984157293E-01
N    -4.96057350657239       -0.626666167821522        0.189373934336099E-01
N    -4.84291580564316        -1.24344943582427       -0.262839984157293E-01
N    -4.64888242944126        -1.84062276342339        0.476635954431188E-01
N    -4.38153340021932        -2.40876837050858       -0.792493310946562E-01
N    -4.04508497187474        -2.93892626146236        0.109594657604056    
N    -3.64484313710706        -3.42273552964344       -0.114506671370131    
N    -3.18711994874345        -3.85256621387895        0.711477794781533E-01
N    -2.67913397489498        -4.22163962751008        0.412637157474060E-01
N    -2.12889645782536        -4.52413526233010       -0.887464551727016E-01
N    -1.54508497187474        -4.75528258147577        0.157178012402405    
N   -0.936906572928623        -4.91143625364344        0.218585493537235    
N   -0.313952597646566        -4.99013364214136        0.568886700943518E-01
N    0.313952597646564        -4.99013364214136       -0.300416497031701E-02
N    0.936906572928621        -4.91143625364344       -0.300416497031701E-02
N     1.54508497187474        -4.75528258147577        0.568886700943518E-01
N     2.12889645782536        -4.52413526233010        0.218585493537235    
N     2.67913397489498        -4.22163962751008        0.157178012402405    
N     3.18711994874345        -3.85256621387895       -0.887464551727016E-01
N     3.64484313710706        -3.42273552964344        0.412637157474060E-01
N     4.04508497187474        -2.93892626146237        0.711477794781533E-01
N     4.38153340021932        -2.40876837050858       -0.114506671370131    
N     4.64888242944126        -1.84062276342339        0.109594657604056    
N     4.84291580564315        -1.24344943582428       -0.792493310946562E-01
N     4.96057350657239       -0.626666167821523        0.476635954431188E-01
N     5.00000000000000       -0.122464679914735E-14   -0.262839984157293E-01
          50

N     4.96057350657239        0.626666167821521        0.612261274113676E-01
N     4.84291580564316         1.24344943582427       -0.673479230386864E-01
N     4.64888242944126         1.84062276342339        0.840603781948374E-01
N     4.38153340021932         2.40876837050858       -0.104964442952712    
N     4.04508497187474         2.93892626146237        0.116350107713125    
N     3.64484313710706         3.42273552964344       -0.953876564425551E-01
N     3.18711994874345         3.85256621387895        0.317656566979571E-01
N     2.67913397489498         4.22163962751008        0.826243146837537E-01
N     2.12889645782536         4.52413526233010       -0.859493421432840E-01
N     1.54508497187474         4.75528258147577        0.133016933617924    
N    0.936906572928624         4.91143625364344        0.256951537674935    
N    0.313952597646568         4.99013364214136        0.768370242733565E-01
N   -0.313952597646567         4.99013364214136       -0.585696519843392E-01
N   -0.936906572928623         4.91143625364344       -0.585696519843392E-01
N    -1.54508497187474         4.75528258147577        0.768370242733565E-01
N    -2.12889645782536         4.52413526233010        0.256951537674935    
N    -2.67913397489498         4.22163962751007        0.133016933617924    
N    -3.18711994874345         3.85256621387895       -0.859493421432840E-01
N    -3.64484313710706         3.42273552964344        0.826243146837537E-01
N    -4.04508497187474         2.93892626146237        0.317656566979571E-01
N    -4.38153340021932         2.40876837050858       -0.953876564425551E-01
N    -4.64888242944126         1.84062276342339        0.116350107713125    
N    -4.84291580564315         1.24344943582428       -0.104964442952712    
N    -4.96057350657239        0.626666167821523        0.840603781948374E-01
N    -5.00000000000000        0.612323399573677E-15   -0.673479230386864E-01
N    -4.96057350657239       -0.626666167821522        0.612261274113676E-01
N    -4.84291580564316        -1.24344943582427       -0.673479230386864E-01
N    -4.64888242944126        -1.84062276342339        0.840603781948374E-01
N    -4.38153340021932        -2.40876837050858       -0.104964442952712    
N    -4.04508497187474        -2.93892626146236        0.116350107713125    
N    -3.64484313710706        -3.42273552964344       -0.953876564425551E-01
N    -3.18711994874345        -3.85256621387895        0.317656566979571E-01
N    -2.67913397489498        -4.22163962751008        0.826243146837537E-01
N    -2.12889645782536        -4.52413526233010       -0.859493421432840E-01
N    -1.54508497187474        -4.75528258147577        0.133016933617924    
N   -0.936906572928623        -4.91143625364344        0.256951537674935    
N   -0.313952597646566        -4.99013364214136        0.768370242733565E-01
N    0.313952597646564        -4.99013364214136       -0.585696519843392E-01
N    0.936906572928621        -4.91143625364344       -0.585696519843392E-01
N     1.54508497187474        -4.75528258147577        0.768370242733565E-01
N     2.12889645782536        -4.52413526233010        0.256951537674935    
N     2.67913397489498        -4.22163962751008        0.133016933617924    
N     3.18711994874345        -3.85256621387895       -0.859493421432840E-01
N     3.64484313710706        -3.42273552964344        0.826243146837537E-01
N     4.04508497187474        -2.93892626146237        0.317656566979571E-01
N     4.38153340021932        -2.40876837050858       -0.953876564425551E-01
N     4.64888242944126        -1.84062276342339        0.116350107713125    
N     4.84291580564315        -1.24344943582428       -0.104964442952712    
N     4.96057350657239       -0.626666167821523        0.840603781948374E-01
N     5.00000000000000       -0.122464679914735E-14   -0.673479230386864E-01
          50

N     4.96057350657239        0.626666167821521        0.933713813907904E-01
N     4.84291580564316         1.24344943582427       -0.973660496773057E-01
N     4.64888242944126         1.84062276342339        0.107021687722278    
N     4.38153340021932         2.40876837050858       -0.114477441069221    
N     4.04508497187474         2.93892626146237        0.105997777920808    
N     3.64484313710706         3.42273552964344       -0.628705271027154E-01
N     3.18711994874345         3.85256621387895       -0.106321530208381E-01
N     2.67913397489498         4.22163962751008        0.115307224745088    
N     2.12889645782536         4.52413526233010       -0.677953365228631E-01
N     1.54508497187474         4.75528258147577        0.105090870711111    
N    0.936906572928624         4.91143625364344        0.283229791847946    
N    0.313952597646568         4.99013364214136        0.985394584644502E-01
N   -0.313952597646567         4.99013364214136       -0.108730994714138    
N   -0.936906572928623         4.91143625364344       -0.108730994714138    
N    -1.54508497187474         4.75528258147577        0.985394584644502E-01
N    -2.12889645782536         4.52413526233010        0.283229791847946    
N    -2.67913397489498         4.22163962751007        0.105090870711111    
N    -3.18711994874345         3.85256621387895       -0.677953365228631E-01
N    -3.64484313710706         3.42273552964344        0.115307224745088    
N    -4.04508497187474         2.93892626146237       -0.106321530208381E-01
N    -4.38153340021932         2.40876837050858       -0.628705271027154E-01
N    -4.64888242944126         1.84062276342339        0.105997777920808    
N    -4.84291580564315         1.24344943582428       -0.114477441069221    
N    -4.96057350657239        0.626666167821523        0.107021687722278    
N    -5.00000000000000        0.612323399573677E-15   -0.973660496773057E-01
N    -4.96057350657239       -0.626666167821522        0.933713813907904E-01
N    -4.84291580564316        -1.24344943582427       -0.973660496773057E-01
N    -4.64888242944126        -1.84062276342339        0.107021687722278    
N    -4.38153340021932        -2.40876837050858       -0.114477441069221    
N    -4.04508497187474        -2.93892626146236        0.105997777920808    
N    -3.64484313710706        -3.42273552964344       -0.628705271027154E-01
N    -3.18711994874345        -3.85256621387895       -0.106321530208381E-01
N    -2.67913397489498        -4.22163962751008        0.115307224745088    
N    -2.12889645782536        -4.52413526233010       -0.677953365228631E-01
N    -1.54508497187474        -4.75528258147577        0.105090870711111    
N   -0.936906572928623        -4.91143625364344        0.283229791847946    
N   -0.313952597646566        -4.99013364214136        0.985394584644502E-01
N    0.313952597646564        -4.99013364214136       -0.108730994714138    
N    0.936906572928621        -4.91143625364344       -0.108730994714138    
N     1.54508497187474        -4.75528258147577        0.985394584644502E-01
N     2.12889645782536        -4.52413526233010        0.283229791847946    
N     2.67913397489498        -4.22163962751008        0.105090870711111    
N     3.18711994874345        -3.85256621387895       -0.677953365228631E-01
N     3.64484313710706        -3.42273552964344        0.115307224745088    
N     4.04508497187474        -2.93892626146237       -0.106321530208381E-01
N     4.38153340021932        -2.40876837050858       -0.628705271027154E-01
N     4.64888242944126        -1.84062276342339        0.105997777920808    
N     4.84291580564315        -1.24344943582428       -0.114477441069221    
N     4.96057350657239       -0.626666167821523        0.107021687722278    
N     5.00000000000000       -0.122464679914735E-14   -0.973660496773057E-01
          50

N     4.96057350657239        0.626666167821521        0.110463617808955    
N     4.84291580564316         1.24344943582427       -0.111791044045278    
N     4.64888242944126         1.84062276342339        0.113171523140338    
N     4.38153340021932         2.40876837050858       -0.106536865632949    
N     4.04508497187474         2.93892626146237        0.802629965680266E-01
N     3.64484313710706         3.42273552964344       -0.216096956820451E-01
N     3.18711994874345         3.85256621387895       -0.501131660148448E-01
N     2.67913397489498         4.22163962751008        0.135767567113782    
N     2.12889645782536         4.52413526233010       -0.355366729399652E-01
N     1.54508497187474         4.75528258147577        0.773725553806358E-01
N    0.936906572928624         4.91143625364344        0.295089046030863    
N    0.313952597646568         4.99013364214136        0.119324091937969    
N   -0.313952597646567         4.99013364214136       -0.150632144761014    
N   -0.936906572928623         4.91143625364344       -0.150632144761014    
N    -1.54508497187474         4.75528258147577        0.119324091937969    
N    -2.12889645782536         4.52413526233010        0.295089046030863    
N    -2.67913397489498         4.22163962751007        0.773725553806358E-01
N    -3.18711994874345         3.85256621387895       -0.355366729399652E-01
N    -3.64484313710706         3.42273552964344        0.135767567113782    
N    -4.04508497187474         2.93892626146237       -0.501131660148448E-01
N    -4.38153340021932         2.40876837050858       -0.216096956820451E-01
N    -4.64888242944126         1.84062276342339        0.802629965680266E-01
N    -4.84291580564315         1.24344943582428       -0.106536865632949    
N    -4.96057350657239        0.626666167821523        0.113171523140338    
N    -5.00000000000000        0.612323399573677E-15   -0.111791044045278    
N    -4.96057350657239       -0.626666167821522        0.110463617808955    
N    -4.84291580564316        -1.24344943582427       -0.111791044045278    
N    -4.64888242944126        -1.84062276342339        0.113171523140338    
N    -4.38153340021932        -2.40876837050858       -0.106536865632949    
N    -4.04508497187474        -2.93892626146236        0.802629965680266E-01
N    -3.64484313710706        -3.42273552964344       -0.216096956820451E-01
N    -3.18711994874345        -3.85256621387895       -0.501131660148448E-01
N    -2.67913397489498        -4.22163962751008        0.135767567113782    
N    -2.12889645782536        -4.52413526233010       -0.355366729399652E-01
N    -1.54508497187474        -4.75528258147577        0.773725553806358E-01
N   -0.936906572928623        -4.91143625364344        0.295089046030863    
N   -0.313952597646566        -4.99013364214136        0.119324091937969    
N    0.313952597646564        -4.99013364214136       -0.150632144761014    
N    0.936906572928621        -4.91143625364344       -0.150632144761014    
N     1.54508497187474        -4.75528258147577        0.119324091937969    
N     2.12889645782536        -4.52413526233010        0.295089046030863    
N     2.67913397489498        -4.22163962751008        0.773725553806358E-01
N     3.18711994874345        -3.85256621387895       -0.355366729399652E-01
N     3.64484313710706        -3.42273552964344        0.135767567113782    
N     4.04508497187474        -2.93892626146237       -0.501131660148448E-01
N     4.38153340021932        -2.40876837050858       -0.216096956820451E-01
N     4.64888242944126        -1.84062276342339        0.802629965680266E-01
N     4.84291580564315        -1.24344943582428       -0.106536865632949    
N     4.96057350657239       -0.626666167821523        0.113171523140338    
N     5.00000000000000       -0.122464679914735E-14   -0.111791044045278    
          50

N     4.96057350657239        0.626666167821521        0.110012011080513    
N     4.84291580564316         1.24344943582427       -0.108563907741187    
N     4.64888242944126         1.84062276342339        0.101765721638446    
N     4.38153340021932         2.40876837050858       -0.825410973187079E-01
N     4.04508497187474         2.93892626146237        0.431215881948118E-01
N     3.64484313710706         3.42273552964344        0.225565737478185E-01
N     3.18711994874345         3.85256621387895       -0.811133936372146E-01
N     2.67913397489498         4.22163962751008        0.142101537733065    
N     2.12889645782536         4.52413526233010        0.798153821070631E-02
N     1.54508497187474         4.75528258147577        0.538041220015441E-01
N    0.936906572928624         4.91143625364344        0.291315058307247    
N    0.313952597646568         4.99013364214136        0.136349775457135    
N   -0.313952597646567         4.99013364214136       -0.181783522133926    
N   -0.936906572928623         4.91143625364344       -0.181783522133926    
N    -1.54508497187474         4.75528258147577        0.136349775457135    
N    -2.12889645782536         4.52413526233010        0.291315058307247    
N    -2.67913397489498         4.22163962751007        0.538041220015441E-01
N    -3.18711994874345         3.85256621387895        0.798153821070631E-02
N    -3.64484313710706         3.42273552964344        0.142101537733065    
N    -4.04508497187474         2.93892626146237       -0.811133936372146E-01
N    -4.38153340021932         2.40876837050858        0.225565737478185E-01
N    -4.64888242944126         1.84062276342339        0.431215881948118E-01
N    -4.84291580564315         1.24344943582428       -0.825410973187079E-01
N    -4.96057350657239        0.626666167821523        0.101765721638446    
N    -5.00000000000000        0.612323399573677E-15   -0.108563907741187    
N    -4.96057350657239       -0.626666167821522        0.110012011080513    
N    -4.84291580564316        -1.24344943582427       -0.108563907741187    
N    -4.64888242944126        -1.84062276342339        0.101765721638446    
N    -4.38153340021932        -2.40876837050858       -0.825410973187079E-01
N    -4.04508497187474        -2.93892626146236        0.431215881948118E-01
N    -3.64484313710706        -3.42273552964344        0.225565737478185E-01
N    -3.18711994874345        -3.85256621387895       -0.811133936372146E-01
N    -2.67913397489498        -4.22163962751008        0.142101537733065    
N    -2.12889645782536        -4.52413526233010        0.798153821070631E-02
N    -1.54508497187474        -4.75528258147577        0.538041220015441E-01
N   -0.936906572928623        -4.91143625364344        0.291315058307247    
N   -0.313952597646566        -4.99013364214136        0.136349775457135    
N    0.313952597646564        -4.99013364214136       -0.181783522133926    
N    0.936906572928621        -4.91143625364344       -0.181783522133926    
N     1.54508497187474        -4.75528258147577        0.136349775457135    
N     2.12889645782536        -4.52413526233010        0.291315058307247    
N     2.67913397489498        -4.22163962751008        0.538041220015441E-01
N     3.18711994874345        -3.85256621387895        0.798153821070631E-02
N     3.64484313710706        -3.42273552964344        0.142101537733065    
N     4.04508497187474        -2.93892626146237       -0.811133936372146E-01
N     4.38153340021932        -2.40876837050858        0.225565737478185E-01
N     4.64888242944126        -1.84062276342339        0.431215881948118E-01
N     4.84291580564315        -1.24344943582428       -0.825410973187079E-01
N     4.96057350657239       -0.626666167821523        0.101765721638446    
N     5.00000000000000       -0.122464679914735E-14   -0.108563907741187    
          50

N     4.96057350657239        0.626666167821521        0.923040670091883E-01
N     4.84291580564316         1.24344943582427       -0.884046530755805E-01
N     4.64888242944126         1.84062276342339        0.747771687020179E-01
N     4.38153340021932         2.40876837050858       -0.463005484175994E-01
N     4.04508497187474         2.93892626146237        0.199986211223123E-03
N     3.64484313710706         3.42273552964344        0.634446691520892E-01
N     3.18711994874345         3.85256621387895       -0.991834540713233E-01
N     2.67913397489498         4.22163962751008        0.134304257309181    
N     2.12889645782536         4.52413526233010        0.586276789299666E-01
N     1.54508497187474         4.75528258147577        0.378240305184632E-01
N    0.936906572928624         4.91143625364344        0.271950135350681    
N    0.313952597646568         4.99013364214136        0.146882306824289    
N   -0.313952597646567         4.99013364214136       -0.200273610938005    
N   -0.936906572928623         4.91143625364344       -0.200273610938005    
N    -1.54508497187474         4.75528258147577        0.146882306824289    
N    -2.12889645782536         4.52413526233010        0.271950135350681    
N    -2.67913397489498         4.22163962751007        0.378240305184632E-01
N    -3.18711994874345         3.85256621387895        0.586276789299666E-01
N    -3.64484313710706         3.42273552964344        0.134304257309181    
N    -4.04508497187474         2.93892626146237       -0.991834540713233E-01
N    -4.38153340021932         2.40876837050858        0.634446691520892E-01
N    -4.64888242944126         1.84062276342339        0.199986211223123E-03
N    -4.84291580564315         1.24344943582428       -0.463005484175994E-01
N    -4.96057350657239        0.626666167821523        0.747771687020179E-01
N    -5.00000000000000        0.612323399573677E-15   -0.884046530755805E-01
N    -4.96057350657239       -0.626666167821522        0.923040670091883E-01
N    -4.84291580564316        -1.24344943582427       -0.884046530755805E-01
N    -4.64888242944126        -1.84062276342339        0.747771687020179E-01
N    -4.38153340021932        -2.40876837050858       -0.463005484175994E-01
N    -4.04508497187474        -2.93892626146236        0.199986211223123E-03
N    -3.64484313710706        -3.42273552964344        0.634446691520892E-01
N    -3.18711994874345        -3.85256621387895       -0.991834540713233E-01
N    -2.67913397489498        -4.22163962751008        0.134304257309181    
N    -2.12889645782536        -4.52413526233010        0.586276789299666E-01
N    -1.54508497187474        -4.75528258147577        0.378240305184632E-01
N   -0.936906572928623        -4.91143625364344        0.271950135350681    
N   -0.313952597646566        -4.99013364214136        0.146882306824289    
N    0.313952597646564        -4.99013364214136       -0.200273610938005    
N    0.936906572928621        -4.91143625364344       -0.200273610938005    
N     1.54508497187474        -4.75528258147577        0.146882306824289    
N     2.12889645782536        -4.52413526233010        0.271950135350681    
N     2.67913397489498        -4.22163962751008        0.378240305184632E-01
N     3.18711994874345        -3.85256621387895        0.586276789299666E-01
N     3.64484313710706        -3.42273552964344        0.134304257309181    
N     4.04508497187474        -2.93892626146237       -0.991834540713233E-01
N     4.38153340021932        -2.40876837050858        0.634446691520892E-01
N     4.64888242944126        -1.84062276342339        0.199986211223123E-03
N     4.84291580564315        -1.24344943582428       -0.463005484175994E-01
N     4.96057350657239       -0.626666167821523        0.747771687020179E-01
N     5.00000000000000       -0.122464679914735E-14   -0.884046530755805E-01
          50

N     4.96057350657239        0.626666167821521        0.603265350737194E-01
N     4.84291580564316         1.24344943582427       -0.546666573264487E-01
N     4.64888242944126         1.84062276342339        0.365615068109453E-01
N     4.38153340021932         2.40876837050858       -0.343683700277835E-02
N     4.04508497187474         2.93892626146237       -0.420640086135348E-01
N     3.64484313710706         3.42273552964344        0.954125751140980E-01
N     3.18711994874345         3.85256621387895       -0.101585037059899    
N     2.67913397489498         4.22163962751008        0.114282337588491    
N     2.12889645782536         4.52413526233010        0.111446976059354    
N     1.54508497187474         4.75528258147577        0.319329646962512E-01
N    0.936906572928624         4.91143625364344        0.238317284846031    
N    0.313952597646568         4.99013364214136        0.148588811876842    
N   -0.313952597646567         4.99013364214136       -0.204953184526216    
N   -0.936906572928623         4.91143625364344       -0.204953184526216    
N    -1.54508497187474         4.75528258147577        0.148588811876842    
N    -2.12889645782536         4.52413526233010        0.238317284846031    
N    -2.67913397489498         4.22163962751007        0.319329646962512E-01
N    -3.18711994874345         3.85256621387895        0.111446976059354    
N    -3.64484313710706         3.42273552964344        0.114282337588491    
N    -4.04508497187474         2.93892626146237       -0.101585037059899    
N    -4.38153340021932         2.40876837050858        0.954125751140980E-01
N    -4.64888242944126         1.84062276342339       -0.420640086135348E-01
N    -4.84291580564315         1.24344943582428       -0.343683700277835E-02
N    -4.96057350657239        0.626666167821523        0.365615068109453E-01
N    -5.00000000000000        0.612323399573677E-15   -0.546666573264487E-01
N    -4.96057350657239       -0.626666167821522        0.603265350737194E-01
N    -4.84291580564316        -1.24344943582427       -0.546666573264487E-01
N    -4.64888242944126        -1.84062276342339        0.365615068109453E-01
N    -4.38153340021932        -2.40876837050858       -0.343683700277835E-02
N    -4.04508497187474        -2.93892626146236       -0.420640086135348E-01
N    -3.64484313710706        -3.42273552964344        0.954125751140980E-01
N    -3.18711994874345        -3.85256621387895       -0.101585037059899    
N    -2.67913397489498        -4.22163962751008        0.114282337588491    
N    -2.12889645782536        -4.52413526233010        0.111446976059354    
N    -1.54508497187474        -4.75528258147577        0.319329646962512E-01
N   -0.936906572928623        -4.91143625364344        0.238317284846031    
N   -0.313952597646566        -4.99013364214136        0.148588811876842    
N    0.313952597646564        -4.99013364214136       -0.204953184526216    
N    0.936906572928621        -4.91143625364344       -0.204953184526216    
N     1.54508497187474        -4.75528258147577        0.148588811876842    
N     2.12889645782536        -4.52413526233010        0.238317284846031    
N     2.67913397489498        -4.22163962751008        0.319329646962512E-01
N     3.18711994874345        -3.85256621387895        0.111446976059354    
N     3.64484313710706        -3.42273552964344        0.114282337588491    
N     4.04508497187474        -2.93892626146237       -0.101585037059899    
N     4.38153340021932        -2.40876837050858        0.954125751140980E-01
N     4.64888242944126        -1.84062276342339       -0.420640086135348E-01
N     4.84291580564315        -1.24344943582428       -0.343683700277835E-02
N     4.96057350657239       -0.626666167821523        0.365615068109453E-01
N     5.00000000000000       -0.122464679914735E-14   -0.546666573264487E-01
          50

N     4.96057350657239        0.626666167821521        0.192652864722162E-01
N     4.84291580564316         1.24344943582427       -0.127824493438291E-01
N     4.64888242944126         1.84062276342339       -0.684083888542877E-02
N     4.38153340021932         2.40876837050858        0.394872862480348E-01
N     4.04508497187474         2.93892626146237       -0.773747547315856E-01
N     3.64484313710706         3.42273552964344        0.114168423866996    
N     3.18711994874345         3.85256621387895       -0.876550260325099E-01
N     2.67913397489498         4.22163962751008        0.856149745179897E-01
N     2.12889645782536         4.52413526233010        0.161228425641661    
N     1.54508497187474         4.75528258147577        0.373523700755591E-01
N    0.936906572928624         4.91143625364344        0.192921549099832    
N    0.313952597646568         4.99013364214136        0.139820575299279    
N   -0.313952597646567         4.99013364214136       -0.195573178992111    
N   -0.936906572928623         4.91143625364344       -0.195573178992111    
N    -1.54508497187474         4.75528258147577        0.139820575299279    
N    -2.12889645782536         4.52413526233010        0.192921549099832    
N    -2.67913397489498         4.22163962751007        0.373523700755591E-01
N    -3.18711994874345         3.85256621387895        0.161228425641661    
N    -3.64484313710706         3.42273552964344        0.856149745179897E-01
N    -4.04508497187474         2.93892626146237       -0.876550260325099E-01
N    -4.38153340021932         2.40876837050858        0.114168423866996    
N    -4.64888242944126         1.84062276342339       -0.773747547315856E-01
N    -4.84291580564315         1.24344943582428        0.394872862480348E-01
N    -4.96057350657239        0.626666167821523       -0.684083888542877E-02
N    -5.00000000000000        0.612323399573677E-15   -0.127824493438291E-01
N    -4.96057350657239       -0.626666167821522        0.192652864722162E-01
N    -4.84291580564316        -1.24344943582427       -0.127824493438291E-01
N    -4.64888242944126        -1.84062276342339       -0.684083888542877E-02
N    -4.38153340021932        -2.40876837050858        0.394872862480348E-01
N    -4.04508497187474        -2.93892626146236       -0.773747547315856E-01
N    -3.64484313710706        -3.42273552964344        0.114168423866996    
N    -3.18711994874345        -3.85256621387895       -0.876550260325099E-01
N    -2.67913397489498        -4.22163962751008        0.856149745179897E-01
N    -2.12889645782536        -4.52413526233010        0.161228425641661    
N    -1.54508497187474        -4.75528258147577        0.373523700755591E-01
N   -0.936906572928623        -4.91143625364344        0.192921549099832    
N   -0.313952597646566        -4.99013364214136        0.139820575299279    
N    0.313952597646564        -4.99013364214136       -0.195573178992111    
N    0.936906572928621        -4.91143625364344       -0.195573178992111    
N     1.54508497187474        -4.75528258147577        0.139820575299279    
N     2.12889645782536        -4.52413526233010        0.192921549099832    
N     2.67913397489498        -4.22163962751008        0.373523700755591E-01
N     3.18711994874345        -3.85256621387895        0.161228425641661    
N     3.64484313710706        -3.42273552964344        0.856149745179897E-01
N     4.04508497187474        -2.93892626146237       -0.876550260325099E-01
N     4.38153340021932        -2.40876837050858        0.114168423866996    
N     4.64888242944126        -1.84062276342339       -0.773747547315856E-01
N     4.84291580564315        -1.24344943582428        0.394872862480348E-01
N     4.96057350657239       -0.626666167821523       -0.684083888542877E-02
N     5.00000000000000       -0.122464679914735E-14   -0.127824493438291E-01
          50

N     4.96057350657239        0.626666167821521       -0.243326661224755E-01
N     4.84291580564316         1.24344943582427        0.306080758798071E-01
N     4.64888242944126         1.84062276342339       -0.486550122816367E-01
N     4.38153340021932         2.40876837050858        0.759733421693809E-01
N     4.04508497187474         2.93892626146237       -0.100504945046138    
N     3.64484313710706         3.42273552964344        0.117384689425359    
N     3.18711994874345         3.85256621387895       -0.588860054396879E-01
N     2.67913397489498         4.22163962751008        0.530905566215083E-01
N     2.12889645782536         4.52413526233010        0.203107418989219    
N     1.54508497187474         4.75528258147577        0.538211641847055E-01
N    0.936906572928624         4.91143625364344        0.139234077116790    
N    0.313952597646568         4.99013364214136        0.119852520726904    
N   -0.313952597646567         4.99013364214136       -0.172859549284979    
N   -0.936906572928623         4.91143625364344       -0.172859549284979    
N    -1.54508497187474         4.75528258147577        0.119852520726904    
N    -2.12889645782536         4.52413526233010        0.139234077116790    
N    -2.67913397489498         4.22163962751007        0.538211641847055E-01
N    -3.18711994874345         3.85256621387895        0.203107418989219    
N    -3.64484313710706         3.42273552964344        0.530905566215083E-01
N    -4.04508497187474         2.93892626146237       -0.588860054396879E-01
N    -4.38153340021932         2.40876837050858        0.117384689425359    
N    -4.64888242944126         1.84062276342339       -0.100504945046138    
N    -4.84291580564315         1.24344943582428        0.759733421693809E-01
N    -4.96057350657239        0.626666167821523       -0.486550122816367E-01
N    -5.00000000000000        0.612323399573677E-15    0.306080758798071E-01
N    -4.96057350657239       -0.626666167821522       -0.243326661224755E-01
N    -4.84291580564316        -1.24344943582427        0.306080758798071E-01
N    -4.64888242944126        -1.84062276342339       -0.486550122816367E-01
N    -4.38153340021932        -2.40876837050858        0.759733421693809E-01
N    -4.04508497187474        -2.93892626146236       -0.100504945046138    
N    -3.64484313710706        -3.42273552964344        0.117384689425359    
N    -3.18711994874345        -3.85256621387895       -0.588860054396879E-01
N    -2.67913397489498        -4.22163962751008        0.530905566215083E-01
N    -2.12889645782536        -4.52413526233010        0.203107418989219    
N    -1.54508497187474        -4.75528258147577        0.538211641847055E-01
N   -0.936906572928623        -4.91143625364344        0.139234077116790    
N   -0.313952597646566        -4.99013364214136        0.119852520726904    
N    0.313952597646564        -4.99013364214136       -0.172859549284979    
N    0.936906572928621        -4.91143625364344       -0.172859549284979    
N     1.54508497187474        -4.75528258147577        0.119852520726904    
N     2.12889645782536        -4.52413526233010        0.139234077116790    
N     2.67913397489498        -4.22163962751008        0.538211641847055E-01
N     3.18711994874345        -3.85256621387895        0.203107418989219    
N     3.64484313710706        -3.42273552964344        0.530905566215083E-01
N     4.04508497187474        -2.93892626146237       -0.588860054396879E-01
N     4.38153340021932        -2.40876837050858        0.117384689425359    
N     4.64888242944126        -1.84062276342339       -0.100504945046138    
N     4.84291580564315        -1.24344943582428        0.759733421693809E-01
N     4.96057350657239       -0.626666167821523       -0.486550122816367E-01
N     5.00000000000000       -0.122464679914735E-14    0.306080758798071E-01
          50

N     4.96057350657239        0.626666167821521       -0.636000695788807E-01
N     4.84291580564316         1.24344943582427        0.687076298885659E-01
N     4.64888242944126         1.84062276342339       -0.824253258735629E-01
N     4.38153340021932         2.40876837050858        0.100574357732773    
N     4.04508497187474         2.93892626146237       -0.108057286260813    
N     3.64484313710706         3.42273552964344        0.105029717014647    
N     3.18711994874345         3.85256621387895       -0.187108674089807E-01
N     2.67913397489498         4.22163962751008        0.220761526737291E-01
N     2.12889645782536         4.52413526233010        0.233129987815084    
N     1.54508497187474         4.75528258147577        0.795619533499231E-01
N    0.936906572928624         4.91143625364344        0.813775355201789E-01
N    0.313952597646568         4.99013364214136        0.890488587767301E-01
N   -0.313952597646567         4.99013364214136       -0.138512678438838    
N   -0.936906572928623         4.91143625364344       -0.138512678438838    
N    -1.54508497187474         4.75528258147577        0.890488587767301E-01
N    -2.12889645782536         4.52413526233010        0.813775355201789E-01
N    -2.67913397489498         4.22163962751007        0.795619533499231E-01
N    -3.18711994874345         3.85256621387895        0.233129987815084    
N    -3.64484313710706         3.42273552964344        0.220761526737291E-01
N    -4.04508497187474         2.93892626146237       -0.187108674089807E-01
N    -4.38153340021932         2.40876837050858        0.105029717014647    
N    -4.64888242944126         1.84062276342339       -0.108057286260813    
N    -4.84291580564315         1.24344943582428        0.100574357732773    
N    -4.96057350657239        0.626666167821523       -0.824253258735629E-01
N    -5.00000000000000        0.612323399573677E-15    0.687076298885659E-01
N    -4.96057350657239       -0.626666167821522       -0.636000695788807E-01
N    -4.84291580564316        -1.24344943582427        0.687076298885659E-01
N    -4.64888242944126        -1.84062276342339       -0.824253258735629E-01
N    -4.38153340021932        -2.40876837050858        0.100574357732773    
N    -4.04508497187474        -2.93892626146236       -0.108057286260813    
N    -3.64484313710706        -3.42273552964344        0.105029717014647    
N    -3.18711994874345        -3.85256621387895       -0.187108674089807E-01
N    -2.67913397489498        -4.22163962751008        0.220761526737291E-01
N    -2.12889645782536        -4.52413526233010        0.233129987815084    
N    -1.54508497187474        -4.75528258147577        0.795619533499231E-01
N   -0.936906572928623        -4.91143625364344        0.813775355201789E-01
N   -0.313952597646566        -4.99013364214136        0.890488587767301E-01
N    0.313952597646564        -4.99013364214136       -0.138512678438838    
N    0.936906572928621        -4.91143625364344       -0.138512678438838    
N     1.54508497187474        -4.75528258147577        0.890488587767301E-01
N     2.12889645782536        -4.52413526233010        0.813775355201789E-01
N     2.67913397489498        -4.22163962751008        0.795619533499231E-01
N     3.18711994874345        -3.85256621387895        0.233129987815084    
N     3.64484313710706        -3.42273552964344        0.220761526737291E-01
N     4.04508497187474        -2.93892626146237       -0.187108674089807E-01
N     4.38153340021932        -2.40876837050858        0.105029717014647    
N     4.64888242944126        -1.84062276342339       -0.108057286260813    
N     4.84291580564315        -1.24344943582428        0.100574357732773    
N     4.96057350657239       -0.626666167821523       -0.824253258735629E-01
N     5.00000000000000       -0.122464679914735E-14    0.687076298885659E-01
          50

N     4.96057350657239        0.626666167821521       -0.924282039916025E-01
N     4.84291580564316         1.24344943582427        0.956241297530083E-01
N     4.64888242944126         1.84062276342339       -0.103008490328892    
N     4.38153340021932         2.40876837050858        0.109714273451824    
N     4.04508497187474         2.93892626146237       -0.989494147139123E-01
N     3.64484313710706         3.42273552964344        0.793688150506050E-01
N     3.18711994874345         3.85256621387895        0.279795957610843E-01
N     2.67913397489498         4.22163962751008       -0.219937151955417E-02
N     2.12889645782536         4.52413526233010        0.248707745884369    
N     1.54508497187474         4.75528258147577        0.111429224158283    
N    0.936906572928624         4.91143625364344        0.237430541026639E-01
N    0.313952597646568         4.99013364214136        0.489293855315291E-01
N   -0.313952597646567         4.99013364214136       -0.951248451352109E-01
N   -0.936906572928623         4.91143625364344       -0.951248451352109E-01
N    -1.54508497187474         4.75528258147577        0.489293855315291E-01
N    -2.12889645782536         4.52413526233010        0.237430541026639E-01
N    -2.67913397489498         4.22163962751007        0.111429224158283    
N    -3.18711994874345         3.85256621387895        0.248707745884369    
N    -3.64484313710706         3.42273552964344       -0.219937151955417E-02
N    -4.04508497187474         2.93892626146237        0.279795957610843E-01
N    -4.38153340021932         2.40876837050858        0.793688150506050E-01
N    -4.64888242944126         1.84062276342339       -0.989494147139123E-01
N    -4.84291580564315         1.24344943582428        0.109714273451824    
N    -4.96057350657239        0.626666167821523       -0.103008490328892    
N    -5.00000000000000        0.612323399573677E-15    0.956241297530083E-01
N    -4.96057350657239       -0.626666167821522       -0.924282039916025E-01
N    -4.84291580564316        -1.24344943582427        0.956241297530083E-01
N    -4.64888242944126        -1.84062276342339       -0.103008490328892    
N    -4.38153340021932        -2.40876837050858        0.109714273451824    
N    -4.04508497187474        -2.93892626146236       -0.989494147139123E-01
N    -3.64484313710706        -3.42273552964344        0.793688150506050E-01
N    -3.18711994874345        -3.85256621387895        0.279795957610843E-01
N    -2.67913397489498        -4.22163962751008       -0.219937151955417E-02
N    -2.12889645782536        -4.52413526233010        0.248707745884369    
N    -1.54508497187474        -4.75528258147577        0.111429224158283    
N   -0.936906572928623        -4.91143625364344        0.237430541026639E-01
N   -0.313952597646566        -4.99013364214136        0.489293855315291E-01
N    0.313952597646564        -4.99013364214136       -0.951248451352109E-01
N    0.936906572928621        -4.91143625364344       -0.951248451352109E-01
N     1.54508497187474        -4.75528258147577        0.489293855315291E-01
N     2.12889645782536        -4.52413526233010        0.237430541026639E-01
N     2.67913397489498        -4.22163962751008        0.111429224158283    
N     3.18711994874345        -3.85256621387895        0.248707745884369    
N     3.64484313710706        -3.42273552964344       -0.219937151955417E-02
N     4.04508497187474        -2.93892626146237        0.279795957610843E-01
N     4.38153340021932        -2.40876837050858        0.793688150506050E-01
N     4.64888242944126        -1.84062276342339       -0.989494147139123E-01
N     4.84291580564315        -1.24344943582428        0.109714273451824    
N     4.96057350657239       -0.626666167821523       -0.103008490328892    
N     5.00000000000000       -0.122464679914735E-14    0.956241297530083E-01
          50

N     4.96057350657239        0.626666167821521       -0.106414468667180    
N     4.84291580564316         1.24344943582427        0.107280229868789    
N     4.64888242944126         1.84062276342339       -0.107353731889261    
N     4.38153340021932         2.40876837050858        0.102216422786048    
N     4.04508497187474         2.93892626146237       -0.745513245941170E-01
N     3.64484313710706         3.42273552964344        0.446347376441272E-01
N     3.18711994874345         3.85256621387895        0.755196492938022E-01
N     2.67913397489498         4.22163962751008       -0.153548114119878E-01
N     2.12889645782536         4.52413526233010        0.248905061468153    
N     1.54508497187474         4.75528258147577        0.145230523669857    
N    0.936906572928624         4.91143625364344       -0.294224179687851E-01
N    0.313952597646568         4.99013364214136        0.211934961126737E-02
N   -0.313952597646567         4.99013364214136       -0.460164541443089E-01
N   -0.936906572928623         4.91143625364344       -0.460164541443089E-01
N    -1.54508497187474         4.75528258147577        0.211934961126737E-02
N    -2.12889645782536         4.52413526233010       -0.294224179687851E-01
N    -2.67913397489498         4.22163962751007        0.145230523669857    
N    -3.18711994874345         3.85256621387895        0.248905061468153    
N    -3.64484313710706         3.42273552964344       -0.153548114119878E-01
N    -4.04508497187474         2.93892626146237        0.755196492938022E-01
N    -4.38153340021932         2.40876837050858        0.446347376441272E-01
N    -4.64888242944126         1.84062276342339       -0.745513245941170E-01
N    -4.84291580564315         1.24344943582428        0.102216422786048    
N    -4.96057350657239        0.626666167821523       -0.107353731889261    
N    -5.00000000000000        0.612323399573677E-15    0.107280229868789    
N    -4.96057350657239       -0.626666167821522       -0.106414468667180    
N    -4.84291580564316        -1.24344943582427        0.107280229868789    
N    -4.64888242944126        -1.84062276342339       -0.107353731889261    
N    -4.38153340021932        -2.40876837050858        0.102216422786048    
N    -4.04508497187474        -2.93892626146236       -0.745513245941170E-01
N    -3.64484313710706        -3.42273552964344        0.446347376441272E-01
N    -3.18711994874345        -3.85256621387895        0.755196492938022E-01
N    -2.67913397489498        -4.22163962751008       -0.153548114119878E-01
N    -2.12889645782536        -4.52413526233010        0.248905061468153    
N    -1.54508497187474        -4.75528258147577        0.145230523669857    
N   -0.936906572928623        -4.91143625364344       -0.294224179687851E-01
N   -0.313952597646566        -4.99013364214136        0.211934961126737E-02
N    0.313952597646564        -4.99013364214136       -0.460164541443089E-01
N    0.936906572928621        -4.91143625364344       -0.460164541443089E-01
N     1.54508497187474        -4.75528258147577        0.211934961126737E-02
N     2.12889645782536        -4.52413526233010       -0.294224179687851E-01
N     2.67913397489498        -4.22163962751008        0.145230523669857    
N     3.18711994874345        -3.85256621387895        0.248905061468153    
N     3.64484313710706        -3.42273552964344       -0.153548114119878E-01
N     4.04508497187474        -2.93892626146237        0.755196492938022E-01
N     4.38153340021932        -2.40876837050858        0.446347376441272E-01
N     4.64888242944126        -1.84062276342339       -0.745513245941170E-01
N     4.84291580564315        -1.24344943582428        0.102216422786048    
N     4.96057350657239       -0.626666167821523       -0.107353731889261    
N     5.00000000000000       -0.122464679914735E-14    0.107280229868789    
          50

N     4.96057350657239        0.626666167821521       -0.103532137217479    
N     4.84291580564316         1.24344943582427        0.102029747180726    
N     4.64888242944126         1.84062276342339       -0.949513956230574E-01
N     4.38153340021932         2.40876837050858        0.794630878678367E-01
N     4.04508497187474         2.93892626146237       -0.384565836599630E-01
N     3.64484313710706         3.42273552964344        0.641516424021762E-02
N     3.18711994874345         3.85256621387895        0.118257043427842    
N     2.67913397489498         4.22163962751008       -0.144641762848282E-01
N     2.12889645782536         4.52413526233010        0.234520426137801    
N     1.54508497187474         4.75528258147577        0.176190137176512    
N    0.936906572928624         4.91143625364344       -0.744149048392436E-01
N    0.313952597646568         4.99013364214136       -0.478229001740234E-01
N   -0.313952597646567         4.99013364214136        0.500042315891532E-02
N   -0.936906572928623         4.91143625364344        0.500042315891532E-02
N    -1.54508497187474         4.75528258147577       -0.478229001740234E-01
N    -2.12889645782536         4.52413526233010       -0.744149048392436E-01
N    -2.67913397489498         4.22163962751007        0.176190137176512    
N    -3.18711994874345         3.85256621387895        0.234520426137801    
N    -3.64484313710706         3.42273552964344       -0.144641762848282E-01
N    -4.04508497187474         2.93892626146237        0.118257043427842    
N    -4.38153340021932         2.40876837050858        0.641516424021762E-02
N    -4.64888242944126         1.84062276342339       -0.384565836599630E-01
N    -4.84291580564315         1.24344943582428        0.794630878678367E-01
N    -4.96057350657239        0.626666167821523       -0.949513956230574E-01
N    -5.00000000000000        0.612323399573677E-15    0.102029747180726    
N    -4.96057350657239       -0.626666167821522       -0.103532137217479    
N    -4.84291580564316        -1.24344943582427        0.102029747180726    
N    -4.64888242944126        -1.84062276342339       -0.949513956230574E-01
N    -4.38153340021932        -2.40876837050858        0.794630878678367E-01
N    -4.04508497187474        -2.93892626146236       -0.384565836599630E-01
N    -3.64484313710706        -3.42273552964344        0.641516424021762E-02
N    -3.18711994874345        -3.85256621387895        0.118257043427842    
N    -2.67913397489498        -4.22163962751008       -0.144641762848282E-01
N    -2.12889645782536        -4.52413526233010        0.234520426137801    
N    -1.54508497187474        -4.75528258147577        0.176190137176512    
N   -0.936906572928623        -4.91143625364344       -0.744149048392436E-01
N   -0.313952597646566        -4.99013364214136       -0.478229001740234E-01
N    0.313952597646564        -4.99013364214136        0.500042315891532E-02
N    0.936906572928621        -4.91143625364344        0.500042315891532E-02
N     1.54508497187474        -4.75528258147577       -0.478229001740234E-01
N     2.12889645782536        -4.52413526233010       -0.744149048392436E-01
N     2.67913397489498        -4.22163962751008        0.176190137176512    
N     3.18711994874345        -3.85256621387895        0.234520426137801    
N     3.64484313710706        -3.42273552964344       -0.144641762848282E-01
N     4.04508497187474        -2.93892626146237        0.118257043427842    
N     4.38153340021932        -2.40876837050858        0.641516424021762E-02
N     4.64888242944126        -1.84062276342339       -0.384565836599630E-01
N     4.84291580564315        -1.24344943582428        0.794630878678367E-01
N     4.96057350657239       -0.626666167821523       -0.949513956230574E-01
N     5.00000000000000       -0.122464679914735E-14    0.102029747180726    
          50

N     4.96057350657239        0.626666167821521       -0.844206936266177E-01
N     4.84291580564316         1.24344943582427        0.808881185218659E-01
N     4.64888242944126         1.84062276342339       -0.678839344440871E-01
N     4.38153340021932         2.40876837050858        0.451648186047453E-01
N     4.04508497187474         2.93892626146237        0.407670975291496E-02
N     3.64484313710706         3.42273552964344       -0.291542204849828E-01
N     3.18711994874345         3.85256621387895        0.151336350138998    
N     2.67913397489498         4.22163962751008        0.152009477867591E-02
N     2.12889645782536         4.52413526233010        0.207949947959971    
N     1.54508497187474         4.75528258147577        0.199505907100921    
N    0.936906572928624         4.91143625364344       -0.108415219357944    
N    0.313952597646568         4.99013364214136       -0.966931502634281E-01
N   -0.313952597646567         4.99013364214136        0.539149245056535E-01
N   -0.936906572928623         4.91143625364344        0.539149245056535E-01
N    -1.54508497187474         4.75528258147577       -0.966931502634281E-01
N    -2.12889645782536         4.52413526233010       -0.108415219357944    
N    -2.67913397489498         4.22163962751007        0.199505907100921    
N    -3.18711994874345         3.85256621387895        0.207949947959971    
N    -3.64484313710706         3.42273552964344        0.152009477867591E-02
N    -4.04508497187474         2.93892626146237        0.151336350138998    
N    -4.38153340021932         2.40876837050858       -0.291542204849828E-01
N    -4.64888242944126         1.84062276342339        0.407670975291496E-02
N    -4.84291580564315         1.24344943582428        0.451648186047453E-01
N    -4.96057350657239        0.626666167821523       -0.678839344440871E-01
N    -5.00000000000000        0.612323399573677E-15    0.808881185218659E-01
N    -4.96057350657239       -0.626666167821522       -0.844206936266177E-01
N    -4.84291580564316        -1.24344943582427        0.808881185218659E-01
N    -4.64888242944126        -1.84062276342339       -0.678839344440871E-01
N    -4.38153340021932        -2.40876837050858        0.451648186047453E-01
N    -4.04508497187474        -2.93892626146236        0.407670975291496E-02
N    -3.64484313710706        -3.42273552964344       -0.291542204849828E-01
N    -3.18711994874345        -3.85256621387895        0.151336350138998    
N    -2.67913397489498        -4.22163962751008        0.152009477867591E-02
N    -2.12889645782536        -4.52413526233010        0.207949947959971    
N    -1.54508497187474        -4.75528258147577        0.199505907100921    
N   -0.936906572928623        -4.91143625364344       -0.108415219357944    
N   -0.313952597646566        -4.99013364214136       -0.966931502634281E-01
N    0.313952597646564        -4.99013364214136        0.539149245056535E-01
N    0.936906572928621        -4.91143625364344        0.539149245056535E-01
N     1.54508497187474        -4.75528258147577       -0.966931502634281E-01
N     2.12889645782536        -4.52413526233010       -0.108415219357944    
N     2.67913397489498        -4.22163962751008        0.199505907100921    
N     3.18711994874345        -3.85256621387895        0.207949947959971    
N     3.64484313710706        -3.42273552964344        0.152009477867591E-02
N     4.04508497187474        -2.93892626146237        0.151336350138998    
N     4.38153340021932        -2.40876837050858       -0.291542204849828E-01
N     4.64888242944126        -1.84062276342339        0.407670975291496E-02
N     4.84291580564315        -1.24344943582428        0.451648186047453E-01
N     4.96057350657239       -0.626666167821523       -0.678839344440871E-01
N     5.00000000000000       -0.122464679914735E-14    0.808881185218659E-01
          50

N     4.96057350657239        0.626666167821521       -0.522555752250222E-01
N     4.84291580564316         1.24344943582427        0.473451652190603E-01
N     4.64888242944126         1.84062276342339       -0.304752187686636E-01
N     4.38153340021932         2.40876837050858        0.477776228717152E-02
N     4.04508497187474         2.93892626146237        0.469300936733677E-01
N     3.64484313710706         3.42273552964344       -0.562742392404023E-01
N     3.18711994874345         3.85256621387895        0.171366669351736    
N     2.67913397489498         4.22163962751008        0.315872706151342E-01
N     2.12889645782536         4.52413526233010        0.172849112339643    
N     1.54508497187474         4.75528258147577        0.210936118169232    
N    0.936906572928624         4.91143625364344       -0.129736067248315    
N    0.313952597646568         4.99013364214136       -0.140022510112750    
N   -0.313952597646567         4.99013364214136        0.968436313272930E-01
N   -0.936906572928623         4.91143625364344        0.968436313272930E-01
N    -1.54508497187474         4.75528258147577       -0.140022510112750    
N    -2.12889645782536         4.52413526233010       -0.129736067248315    
N    -2.67913397489498         4.22163962751007        0.210936118169232    
N    -3.18711994874345         3.85256621387895        0.172849112339643    
N    -3.64484313710706         3.42273552964344        0.315872706151342E-01
N    -4.04508497187474         2.93892626146237        0.171366669351736    
N    -4.38153340021932         2.40876837050858       -0.562742392404023E-01
N    -4.64888242944126         1.84062276342339        0.469300936733677E-01
N    -4.84291580564315         1.24344943582428        0.477776228717152E-02
N    -4.96057350657239        0.626666167821523       -0.304752187686636E-01
N    -5.00000000000000        0.612323399573677E-15    0.473451652190603E-01
N    -4.96057350657239       -0.626666167821522       -0.522555752250222E-01
N    -4.84291580564316        -1.24344943582427        0.473451652190603E-01
N    -4.64888242944126        -1.84062276342339       -0.304752187686636E-01
N    -4.38153340021932        -2.40876837050858        0.477776228717152E-02
N    -4.04508497187474        -2.93892626146236        0.469300936733677E-01
N    -3.64484313710706        -3.42273552964344       -0.562742392404023E-01
N    -3.18711994874345        -3.85256621387895        0.171366669351736    
N    -2.67913397489498        -4.22163962751008        0.315872706151342E-01
N    -2.12889645782536        -4.52413526233010        0.172849112339643    
N    -1.54508497187474        -4.75528258147577        0.210936118169232    
N   -0.936906572928623        -4.91143625364344       -0.129736067248315    
N   -0.313952597646566        -4.99013364214136       -0.140022510112750    
N    0.313952597646564        -4.99013364214136        0.968436313272930E-01
N    0.936906572928621        -4.91143625364344        0.968436313272930E-01
N     1.54508497187474        -4.75528258147577       -0.140022510112750    
N     2.12889645782536        -4.52413526233010       -0.129736067248315    
N     2.67913397489498        -4.22163962751008        0.210936118169232    
N     3.18711994874345        -3.85256621387895        0.172849112339643    
N     3.64484313710706        -3.42273552964344        0.315872706151342E-01
N     4.04508497187474        -2.93892626146237        0.171366669351736    
N     4.38153340021932        -2.40876837050858       -0.562742392404023E-01
N     4.64888242944126        -1.84062276342339        0.469300936733677E-01
N     4.84291580564315        -1.24344943582428        0.477776228717152E-02
N     4.96057350657239       -0.626666167821523       -0.304752187686636E-01
N     5.00000000000000       -0.122464679914735E-14    0.473451652190603E-01
          50

N     4.96057350657239        0.626666167821521       -0.122223269316238E-01
N     4.84291580564316         1.24344943582427        0.679387570780350E-02
N     4.64888242944126         1.84062276342339        0.114037930168205E-01
N     4.38153340021932         2.40876837050858       -0.353394069209891E-01
N     4.04508497187474         2.93892626146237        0.840525664296042E-01
N     3.64484313710706         3.42273552964344       -0.703162777342443E-01
N     3.18711994874345         3.85256621387895        0.176878871413015    
N     2.67913397489498         4.22163962751008        0.727590297019863E-01
N     2.12889645782536         4.52413526233010        0.133635720580043    
N     1.54508497187474         4.75528258147577        0.207346788330557    
N    0.936906572928624         4.91143625364344       -0.137946751354108    
N    0.313952597646568         4.99013364214136       -0.173519116991796    
N   -0.313952597646567         4.99013364214136        0.130362071287114    
N   -0.936906572928623         4.91143625364344        0.130362071287114    
N    -1.54508497187474         4.75528258147577       -0.173519116991796    
N    -2.12889645782536         4.52413526233010       -0.137946751354108    
N    -2.67913397489498         4.22163962751007        0.207346788330557    
N    -3.18711994874345         3.85256621387895        0.133635720580043    
N    -3.64484313710706         3.42273552964344        0.727590297019863E-01
N    -4.04508497187474         2.93892626146237        0.176878871413015    
N    -4.38153340021932         2.40876837050858       -0.703162777342443E-01
N    -4.64888242944126         1.84062276342339        0.840525664296042E-01
N    -4.84291580564315         1.24344943582428       -0.353394069209891E-01
N    -4.96057350657239        0.626666167821523        0.114037930168205E-01
N    -5.00000000000000        0.612323399573677E-15    0.679387570780350E-02
N    -4.96057350657239       -0.626666167821522       -0.122223269316238E-01
N    -4.84291580564316        -1.24344943582427        0.679387570780350E-02
N    -4.64888242944126        -1.84062276342339        0.114037930168205E-01
N    -4.38153340021932        -2.40876837050858       -0.353394069209891E-01
N    -4.04508497187474        -2.93892626146236        0.840525664296042E-01
N    -3.64484313710706        -3.42273552964344       -0.703162777342443E-01
N    -3.18711994874345        -3.85256621387895        0.176878871413015    
N    -2.67913397489498        -4.22163962751008        0.727590297019863E-01
N    -2.12889645782536        -4.52413526233010        0.133635720580043    
N    -1.54508497187474        -4.75528258147577        0.207346788330557    
N   -0.936906572928623        -4.91143625364344       -0.137946751354108    
N   -0.313952597646566        -4.99013364214136       -0.173519116991796    
N    0.313952597646564        -4.99013364214136        0.130362071287114    
N    0.936906572928621        -4.91143625364344        0.130362071287114    
N     1.54508497187474        -4.75528258147577       -0.173519116991796    
N     2.12889645782536        -4.52413526233010       -0.137946751354108    
N     2.67913397489498        -4.22163962751008        0.207346788330557    
N     3.18711994874345        -3.85256621387895        0.133635720580043    
N     3.64484313710706        -3.42273552964344        0.727590297019863E-01
N     4.04508497187474        -2.93892626146237        0.176878871413015    
N     4.38153340021932        -2.40876837050858       -0.703162777342443E-01
N     4.64888242944126        -1.84062276342339        0.840525664296042E-01
N     4.84291580564315        -1.24344943582428       -0.353394069209891E-01
N     4.96057350657239       -0.626666167821523        0.114037930168205E-01
N     5.00000000000000       -0.122464679914735E-14    0.679387570780350E-02
          50

N     4.96057350657239        0.626666167821521        0.293182766402746E-01
N     4.84291580564316         1.24344943582427       -0.343315786898483E-01
N     4.64888242944126         1.84062276342339        0.512624009595095E-01
N     4.38153340021932         2.40876837050858       -0.688983448370736E-01
N     4.04508497187474         2.93892626146237        0.110372537831935    
N     3.64484313710706         3.42273552964344       -0.684852549710244E-01
N     3.18711994874345         3.85256621387895        0.168506877852790    
N     2.67913397489498         4.22163962751008        0.120441932563102    
N     2.12889645782536         4.52413526233010        0.948986000860568E-01
N     1.54508497187474         4.75528258147577        0.187151431082618    
N    0.936906572928624         4.91143625364344       -0.133861453354414    
N    0.313952597646568         4.99013364214136       -0.193527094964126    
N   -0.313952597646567         4.99013364214136        0.151810808120332    
N   -0.936906572928623         4.91143625364344        0.151810808120332    
N    -1.54508497187474         4.75528258147577       -0.193527094964126    
N    -2.12889645782536         4.52413526233010       -0.133861453354414    
N    -2.67913397489498         4.22163962751007        0.187151431082618    
N    -3.18711994874345         3.85256621387895        0.948986000860568E-01
N    -3.64484313710706         3.42273552964344        0.120441932563102    
N    -4.04508497187474         2.93892626146237        0.168506877852790    
N    -4.38153340021932         2.40876837050858       -0.684852549710244E-01
N    -4.64888242944126         1.84062276342339        0.110372537831935    
N    -4.84291580564315         1.24344943582428       -0.688983448370736E-01
N    -4.96057350657239        0.626666167821523        0.512624009595095E-01
N    -5.00000000000000        0.612323399573677E-15   -0.343315786898483E-01
N    -4.96057350657239       -0.626666167821522        0.293182766402746E-01
N    -4.84291580564316        -1.24344943582427       -0.343315786898483E-01
N    -4.64888242944126        -1.84062276342339        0.512624009595095E-01
N    -4.38153340021932        -2.40876837050858       -0.688983448370736E-01
N    -4.04508497187474        -2.93892626146236        0.110372537831935    
N    -3.64484313710706        -3.42273552964344       -0.684852549710244E-01
N    -3.18711994874345        -3.85256621387895        0.168506877852790    
N    -2.67913397489498        -4.22163962751008        0.120441932563102    
N    -2.12889645782536        -4.52413526233010        0.948986000860568E-01
N    -1.54508497187474        -4.75528258147577        0.187151431082618    
N   -0.936906572928623        -4.91143625364344       -0.133861453354414    
N   -0.313952597646566        -4.99013364214136       -0.193527094964126    
N    0.313952597646564        -4.99013364214136        0.151810808120332    
N    0.936906572928621        -4.91143625364344        0.151810808120332    
N     1.54508497187474        -4.75528258147577       -0.193527094964126    
N     2.12889645782536        -4.52413526233010       -0.133861453354414    
N     2.67913397489498        -4.22163962751008        0.187151431082618    
N     3.18711994874345        -3.85256621387895        0.948986000860568E-01
N     3.64484313710706        -3.42273552964344        0.120441932563102    
N     4.04508497187474        -2.93892626146237        0.168506877852790    
N     4.38153340021932        -2.40876837050858       -0.684852549710244E-01
N     4.64888242944126        -1.84062276342339        0.110372537831935    
N     4.84291580564315        -1.24344943582428       -0.688983448370736E-01
N     4.96057350657239       -0.626666167821523        0.512624009595095E-01
N     5.00000000000000       -0.122464679914735E-14   -0.343315786898483E-01
          50

N     4.96057350657239        0.626666167821521        0.658402170328254E-01
N     4.84291580564316         1.24344943582427       -0.695710111866582E-01
N     4.64888242944126         1.84062276342339        0.830048885396661E-01
N     4.38153340021932         2.40876837050858       -0.906342324424129E-01
N     4.04508497187474         2.93892626146237        0.122557259393356    
N     3.64484313710706         3.42273552964344       -0.502159315069889E-01
N     3.18711994874345         3.85256621387895        0.148866409530515    
N     2.67913397489498         4.22163962751008        0.168997535654355    
N     2.12889645782536         4.52413526233010        0.607902127588140E-01
N     1.54508497187474         4.75528258147577        0.150585569173400    
N    0.936906572928624         4.91143625364344       -0.119392816363601    
N    0.313952597646568         4.99013364214136       -0.197453774730187    
N   -0.313952597646567         4.99013364214136        0.159545782663323    
N   -0.936906572928623         4.91143625364344        0.159545782663323    
N    -1.54508497187474         4.75528258147577       -0.197453774730187    
N    -2.12889645782536         4.52413526233010       -0.119392816363601    
N    -2.67913397489498         4.22163962751007        0.150585569173400    
N    -3.18711994874345         3.85256621387895        0.607902127588140E-01
N    -3.64484313710706         3.42273552964344        0.168997535654355    
N    -4.04508497187474         2.93892626146237        0.148866409530515    
N    -4.38153340021932         2.40876837050858       -0.502159315069889E-01
N    -4.64888242944126         1.84062276342339        0.122557259393356    
N    -4.84291580564315         1.24344943582428       -0.906342324424129E-01
N    -4.96057350657239        0.626666167821523        0.830048885396661E-01
N    -5.00000000000000        0.612323399573677E-15   -0.695710111866582E-01
N    -4.96057350657239       -0.626666167821522        0.658402170328254E-01
N    -4.84291580564316        -1.24344943582427       -0.695710111866582E-01
N    -4.64888242944126        -1.84062276342339        0.830048885396661E-01
N    -4.38153340021932        -2.40876837050858       -0.906342324424129E-01
N    -4.04508497187474        -2.93892626146236        0.122557259393356    
N    -3.64484313710706        -3.42273552964344       -0.502159315069889E-01
N    -3.18711994874345        -3.85256621387895        0.148866409530515    
N    -2.67913397489498        -4.22163962751008        0.168997535654355    
N    -2.12889645782536        -4.52413526233010        0.607902127588140E-01
N    -1.54508497187474        -4.75528258147577        0.150585569173400    
N   -0.936906572928623        -4.91143625364344       -0.119392816363601    
N   -0.313952597646566        -4.99013364214136       -0.197453774730187    
N    0.313952597646564        -4.99013364214136        0.159545782663323    
N    0.936906572928621        -4.91143625364344        0.159545782663323    
N     1.54508497187474        -4.75528258147577       -0.197453774730187    
N     2.12889645782536        -4.52413526233010       -0.119392816363601    
N     2.67913397489498        -4.22163962751008        0.150585569173400    
N     3.18711994874345        -3.85256621387895        0.607902127588140E-01
N     3.64484313710706        -3.42273552964344        0.168997535654355    
N     4.04508497187474        -2.93892626146237        0.148866409530515    
N     4.38153340021932        -2.40876837050858       -0.502159315069889E-01
N     4.64888242944126        -1.84062276342339        0.122557259393356    
N     4.84291580564315        -1.24344943582428       -0.906342324424129E-01
N     4.96057350657239       -0.626666167821523        0.830048885396661E-01
N     5.00000000000000       -0.122464679914735E-14   -0.695710111866582E-01
          50

N     4.96057350657239        0.626666167821521        0.916774634451614E-01
N     4.84291580564316         1.24344943582427       -0.934465113665563E-01
N     4.64888242944126         1.84062276342339        0.101874800299666    
N     4.38153340021932         2.40876837050858       -0.970939747877195E-01
N     4.04508497187474         2.93892626146237        0.119506438135241    
N     3.64484313710706         3.42273552964344       -0.172460287749090E-01
N     3.18711994874345         3.85256621387895        0.122147685725726    
N     2.67913397489498         4.22163962751008        0.212456216673259    
N     2.12889645782536         4.52413526233010        0.344846092133734E-01
N     1.54508497187474         4.75528258147577        0.997760818035796E-01
N    0.936906572928624         4.91143625364344       -0.972884994840733E-01
N    0.313952597646568         4.99013364214136       -0.184115607980332    
N   -0.313952597646567         4.99013364214136        0.153106058820159    
N   -0.936906572928623         4.91143625364344        0.153106058820159    
N    -1.54508497187474         4.75528258147577       -0.184115607980332    
N    -2.12889645782536         4.52413526233010       -0.972884994840733E-01
N    -2.67913397489498         4.22163962751007        0.997760818035796E-01
N    -3.18711994874345         3.85256621387895        0.344846092133734E-01
N    -3.64484313710706         3.42273552964344        0.212456216673259    
N    -4.04508497187474         2.93892626146237        0.122147685725726    
N    -4.38153340021932         2.40876837050858       -0.172460287749090E-01
N    -4.64888242944126         1.84062276342339        0.119506438135241    
N    -4.84291580564315         1.24344943582428       -0.970939747877195E-01
N    -4.96057350657239        0.626666167821523        0.101874800299666    
N    -5.00000000000000        0.612323399573677E-15   -0.934465113665563E-01
N    -4.96057350657239       -0.626666167821522        0.916774634451614E-01
N    -4.84291580564316        -1.24344943582427       -0.934465113665563E-01
N    -4.64888242944126        -1.84062276342339        0.101874800299666    
N    -4.38153340021932        -2.40876837050858       -0.970939747877195E-01
N    -4.04508497187474        -2.93892626146236        0.119506438135241    
N    -3.64484313710706        -3.42273552964344       -0.172460287749090E-01
N    -3.18711994874345        -3.85256621387895        0.122147685725726    
N    -2.67913397489498        -4.22163962751008        0.212456216673259    
N    -2.12889645782536        -4.52413526233010        0.344846092133734E-01
N    -1.54508497187474        -4.75528258147577        0.997760818035796E-01
N   -0.936906572928623        -4.91143625364344       -0.972884994840733E-01
N   -0.313952597646566        -4.99013364214136       -0.184115607980332    
N    0.313952597646564        -4.99013364214136        0.153106058820159    
N    0.936906572928621        -4.91143625364344        0.153106058820159    
N     1.54508497187474        -4.75528258147577       -0.184115607980332    
N     2.12889645782536        -4.52413526233010       -0.972884994840733E-01
N     2.67913397489498        -4.22163962751008        0.997760818035796E-01
N     3.18711994874345        -3.85256621387895        0.344846092133734E-01
N     3.64484313710706        -3.42273552964344        0.212456216673259    
N     4.04508497187474        -2.93892626146237        0.122147685725726    
N     4.38153340021932        -2.40876837050858       -0.172460287749090E-01
N     4.64888242944126        -1.84062276342339        0.119506438135241    
N     4.84291580564315        -1.24344943582428       -0.970939747877195E-01
N     4.96057350657239       -0.626666167821523        0.101874800299666    
N     5.00000000000000       -0.122464679914735E-14   -0.934465113665563E-01
          50

N     4.96057350657239        0.626666167821521        0.102903904244423    
N     4.84291580564316         1.24344943582427       -0.102306503322680    
N     4.64888242944126         1.84062276342339        0.105183276398797    
N     4.38153340021932         2.40876837050858       -0.871403658002197E-01
N     4.04508497187474         2.93892626146237        0.102507013340748    
N     3.64484313710706         3.42273552964344        0.266430287765095E-01
N     3.18711994874345         3.85256621387895        0.934796155481133E-01
N     2.67913397489498         4.22163962751008        0.245280703359750    
N     2.12889645782536         4.52413526233010        0.177745529550838E-01
N     1.54508497187474         4.75528258147577        0.385889452400297E-01
N    0.936906572928624         4.91143625364344       -0.707825353970835E-01
N    0.313952597646568         4.99013364214136       -0.153958328577213    
N   -0.313952597646567         4.99013364214136        0.133278645355949    
N   -0.936906572928623         4.91143625364344        0.133278645355949    
N    -1.54508497187474         4.75528258147577       -0.153958328577213    
N    -2.12889645782536         4.52413526233010       -0.707825353970835E-01
N    -2.67913397489498         4.22163962751007        0.385889452400297E-01
N    -3.18711994874345         3.85256621387895        0.177745529550838E-01
N    -3.64484313710706         3.42273552964344        0.245280703359750    
N    -4.04508497187474         2.93892626146237        0.934796155481133E-01
N    -4.38153340021932         2.40876837050858        0.266430287765095E-01
N    -4.64888242944126         1.84062276342339        0.102507013340748    
N    -4.84291580564315         1.24344943582428       -0.871403658002197E-01
N    -4.96057350657239        0.626666167821523        0.105183276398797    
N    -5.00000000000000        0.612323399573677E-15   -0.102306503322680    
N    -4.96057350657239       -0.626666167821522        0.102903904244423    
N    -4.84291580564316        -1.24344943582427       -0.102306503322680    
N    -4.64888242944126        -1.84062276342339        0.105183276398797    
N    -4.38153340021932        -2.40876837050858       -0.871403658002197E-01
N    -4.04508497187474        -2.93892626146236        0.102507013340748    
N    -3.64484313710706        -3.42273552964344        0.266430287765095E-01
N    -3.18711994874345        -3.85256621387895        0.934796155481133E-01
N    -2.67913397489498        -4.22163962751008        0.245280703359750    
N    -2.12889645782536        -4.52413526233010        0.177745529550838E-01
N    -1.54508497187474        -4.75528258147577        0.385889452400297E-01
N   -0.936906572928623        -4.91143625364344       -0.707825353970835E-01
N   -0.313952597646566        -4.99013364214136       -0.153958328577213    
N    0.313952597646564        -4.99013364214136        0.133278645355949    
N    0.936906572928621        -4.91143625364344        0.133278645355949    
N     1.54508497187474        -4.75528258147577       -0.153958328577213    
N     2.12889645782536        -4.52413526233010       -0.707825353970835E-01
N     2.67913397489498        -4.22163962751008        0.385889452400297E-01
N     3.18711994874345        -3.85256621387895        0.177745529550838E-01
N     3.64484313710706        -3.42273552964344        0.245280703359750    
N     4.04508497187474        -2.93892626146237        0.934796155481133E-01
N     4.38153340021932        -2.40876837050858        0.266430287765095E-01
N     4.64888242944126        -1.84062276342339        0.102507013340748    
N     4.84291580564315        -1.24344943582428       -0.871403658002197E-01
N     4.96057350657239       -0.626666167821523        0.105183276398797    
N     5.00000000000000       -0.122464679914735E-14   -0.102306503322680    
          50

N     4.96057350657239        0.626666167821521        0.979318484790985E-01
N     4.84291580564316         1.24344943582427       -0.948754186999515E-01
N     4.64888242944126         1.84062276342339        0.927106807248834E-01
N     4.38153340021932         2.40876837050858       -0.620975088548694E-01
N     4.04508497187474         2.93892626146237        0.750271833011556E-01
N     3.64484313710706         3.42273552964344        0.761782629488646E-01
N     3.18711994874345         3.85256621387895        0.681561757278924E-01
N     2.67913397489498         4.22163962751008        0.263077849669925    
N     2.12889645782536         4.52413526233010        0.108638121220492E-01
N     1.54508497187474         4.75528258147577       -0.277346424618138E-01
N    0.936906572928624         4.91143625364344       -0.432038484630153E-01
N    0.313952597646568         4.99013364214136       -0.109117615544007    
N   -0.313952597646567         4.99013364214136        0.102049145289332    
N   -0.936906572928623         4.91143625364344        0.102049145289332    
N    -1.54508497187474         4.75528258147577       -0.109117615544007    
N    -2.12889645782536         4.52413526233010       -0.432038484630153E-01
N    -2.67913397489498         4.22163962751007       -0.277346424618138E-01
N    -3.18711994874345         3.85256621387895        0.108638121220492E-01
N    -3.64484313710706         3.42273552964344        0.263077849669925    
N    -4.04508497187474         2.93892626146237        0.681561757278924E-01
N    -4.38153340021932         2.40876837050858        0.761782629488646E-01
N    -4.64888242944126         1.84062276342339        0.750271833011556E-01
N    -4.84291580564315         1.24344943582428       -0.620975088548694E-01
N    -4.96057350657239        0.626666167821523        0.927106807248834E-01
N    -5.00000000000000        0.612323399573677E-15   -0.948754186999515E-01
N    -4.96057350657239       -0.626666167821522        0.979318484790985E-01
N    -4.84291580564316        -1.24344943582427       -0.948754186999515E-01
N    -4.64888242944126        -1.84062276342339        0.927106807248834E-01
N    -4.38153340021932        -2.40876837050858       -0.620975088548694E-01
N    -4.04508497187474        -2.93892626146236        0.750271833011556E-01
N    -3.64484313710706        -3.42273552964344        0.761782629488646E-01
N    -3.18711994874345        -3.85256621387895        0.681561757278924E-01
N    -2.67913397489498        -4.22163962751008        0.263077849669925    
N    -2.12889645782536        -4.52413526233010        0.108638121220492E-01
N    -1.54508497187474        -4.75528258147577       -0.277346424618138E-01
N   -0.936906572928623        -4.91143625364344       -0.432038484630153E-01
N   -0.313952597646566        -4.99013364214136       -0.109117615544007    
N    0.313952597646564        -4.99013364214136        0.102049145289332    
N    0.936906572928621        -4.91143625364344        0.102049145289332    
N     1.54508497187474        -4.75528258147577       -0.109117615544007    
N     2.12889645782536        -4.52413526233010       -0.432038484630153E-01
N     2.67913397489498        -4.22163962751008       -0.277346424618138E-01
N     3.18711994874345        -3.85256621387895        0.108638121220492E-01
N     3.64484313710706        -3.42273552964344        0.263077849669925    
N     4.04508497187474        -2.93892626146237        0.681561757278924E-01
N     4.38153340021932        -2.40876837050858        0.761782629488646E-01
N     4.64888242944126        -1.84062276342339        0.750271833011556E-01
N     4.84291580564315        -1.24344943582428       -0.620975088548694E-01
N     4.96057350657239       -0.626666167821523        0.927106807248834E-01
N     5.00000000000000       -0.122464679914735E-14   -0.948754186999515E-01
          50

N     4.96057350657239        0.626666167821521        0.777384097019386E-01
N     4.84291580564316         1.24344943582427       -0.724260660541465E-01
N     4.64888242944126         1.84062276342339        0.667223292378132E-01
N     4.38153340021932         2.40876837050858       -0.255182526234257E-01
N     4.04508497187474         2.93892626146237        0.421819999987052E-01
N     3.64484313710706         3.42273552964344        0.125357861261874    
N     3.18711994874345         3.85256621387895        0.508360798833702E-01
N     2.67913397489498         4.22163962751008        0.263163576611954    
N     2.12889645782536         4.52413526233010        0.123847509780643E-01
N     1.54508497187474         4.75528258147577       -0.931175930153757E-01
N    0.936906572928624         4.91143625364344       -0.175897302083954E-01
N    0.313952597646568         4.99013364214136       -0.533020041487873E-01
N   -0.313952597646567         4.99013364214136        0.624378432273753E-01
N   -0.936906572928623         4.91143625364344        0.624378432273753E-01
N    -1.54508497187474         4.75528258147577       -0.533020041487873E-01
N    -2.12889645782536         4.52413526233010       -0.175897302083954E-01
N    -2.67913397489498         4.22163962751007       -0.931175930153757E-01
N    -3.18711994874345         3.85256621387895        0.123847509780643E-01
N    -3.64484313710706         3.42273552964344        0.263163576611954    
N    -4.04508497187474         2.93892626146237        0.508360798833702E-01
N    -4.38153340021932         2.40876837050858        0.125357861261874    
N    -4.64888242944126         1.84062276342339        0.421819999987052E-01
N    -4.84291580564315         1.24344943582428       -0.255182526234257E-01
N    -4.96057350657239        0.626666167821523        0.667223292378132E-01
N    -5.00000000000000        0.612323399573677E-15   -0.724260660541465E-01
N    -4.96057350657239       -0.626666167821522        0.777384097019386E-01
N    -4.84291580564316        -1.24344943582427       -0.724260660541465E-01
N    -4.64888242944126        -1.84062276342339        0.667223292378132E-01
N    -4.38153340021932        -2.40876837050858       -0.255182526234257E-01
N    -4.04508497187474        -2.93892626146236        0.421819999987052E-01
N    -3.64484313710706        -3.42273552964344        0.125357861261874    
N    -3.18711994874345        -3.85256621387895        0.508360798833702E-01
N    -2.67913397489498        -4.22163962751008        0.263163576611954    
N    -2.12889645782536        -4.52413526233010        0.123847509780643E-01
N    -1.54508497187474        -4.75528258147577       -0.931175930153757E-01
N   -0.936906572928623        -4.91143625364344       -0.175897302083954E-01
N   -0.313952597646566        -4.99013364214136       -0.533020041487873E-01
N    0.313952597646564        -4.99013364214136        0.624378432273753E-01
N    0.936906572928621        -4.91143625364344        0.624378432273753E-01
N     1.54508497187474        -4.75528258147577       -0.533020041487873E-01
N     2.12889645782536        -4.52413526233010       -0.175897302083954E-01
N     2.67913397489498        -4.22163962751008       -0.931175930153757E-01
N     3.18711994874345        -3.85256621387895        0.123847509780643E-01
N     3.64484313710706        -3.42273552964344        0.263163576611954    
N     4.04508497187474        -2.93892626146237        0.508360798833702E-01
N     4.38153340021932        -2.40876837050858        0.125357861261874    
N     4.64888242944126        -1.84062276342339        0.421819999987052E-01
N     4.84291580564315        -1.24344943582428       -0.255182526234257E-01
N     4.96057350657239       -0.626666167821523        0.667223292378132E-01
N     5.00000000000000       -0.122464679914735E-14   -0.724260660541465E-01
          50

N     4.96057350657239        0.626666167821521        0.456882393398999E-01
N     4.84291580564316         1.24344943582427       -0.385514803892543E-01
N     4.64888242944126         1.84062276342339        0.315994080143136E-01
N     4.38153340021932         2.40876837050858        0.173875440482272E-01
N     4.04508497187474         2.93892626146237        0.995203798313625E-02
N     3.64484313710706         3.42273552964344        0.168311480899265    
N     3.18711994874345         3.85256621387895        0.448314617386146E-01
N     2.67913397489498         4.22163962751008        0.244905367759954    
N     2.12889645782536         4.52413526233010        0.196407840491213E-01
N     1.54508497187474         4.75528258147577       -0.151302958540824    
N    0.936906572928624         4.91143625364344        0.364842877369201E-02
N    0.313952597646568         4.99013364214136        0.850137440229966E-02
N   -0.313952597646567         4.99013364214136        0.182324315914998E-01
N   -0.936906572928623         4.91143625364344        0.182324315914998E-01
N    -1.54508497187474         4.75528258147577        0.850137440229966E-02
N    -2.12889645782536         4.52413526233010        0.364842877369201E-02
N    -2.67913397489498         4.22163962751007       -0.151302958540824    
N    -3.18711994874345         3.85256621387895        0.196407840491213E-01
N    -3.64484313710706         3.42273552964344        0.244905367759954    
N    -4.04508497187474         2.93892626146237        0.448314617386146E-01
N    -4.38153340021932         2.40876837050858        0.168311480899265    
N    -4.64888242944126         1.84062276342339        0.995203798313625E-02
N    -4.84291580564315         1.24344943582428        0.173875440482272E-01
N    -4.96057350657239        0.626666167821523        0.315994080143136E-01
N    -5.00000000000000        0.612323399573677E-15   -0.385514803892543E-01
N    -4.96057350657239       -0.626666167821522        0.456882393398999E-01
N    -4.84291580564316        -1.24344943582427       -0.385514803892543E-01
N    -4.64888242944126        -1.84062276342339        0.315994080143136E-01
N    -4.38153340021932        -2.40876837050858        0.173875440482272E-01
N    -4.04508497187474        -2.93892626146236        0.995203798313625E-02
N    -3.64484313710706        -3.42273552964344        0.168311480899265    
N    -3.18711994874345        -3.85256621387895        0.448314617386146E-01
N    -2.67913397489498        -4.22163962751008        0.244905367759954    
N    -2.12889645782536        -4.52413526233010        0.196407840491213E-01
N    -1.54508497187474        -4.75528258147577       -0.151302958540824    
N   -0.936906572928623        -4.91143625364344        0.364842877369201E-02
N   -0.313952597646566        -4.99013364214136        0.850137440229966E-02
N    0.313952597646564        -4.99013364214136        0.182324315914998E-01
N    0.936906572928621        -4.91143625364344        0.182324315914998E-01
N     1.54508497187474        -4.75528258147577        0.850137440229966E-02
N     2.12889645782536        -4.52413526233010        0.364842877369201E-02
N     2.67913397489498        -4.22163962751008       -0.151302958540824    
N     3.18711994874345        -3.85256621387895        0.196407840491213E-01
N     3.64484313710706        -3.42273552964344        0.244905367759954    
N     4.04508497187474        -2.93892626146237        0.448314617386146E-01
N     4.38153340021932        -2.40876837050858        0.168311480899265    
N     4.64888242944126        -1.84062276342339        0.995203798313625E-02
N     4.84291580564315        -1.24344943582428        0.173875440482272E-01
N     4.96057350657239       -0.626666167821523        0.315994080143136E-01
N     5.00000000000000       -0.122464679914735E-14   -0.385514803892543E-01
          50

N     4.96057350657239        0.626666167821521        0.698456221039058E-02
N     4.84291580564316         1.24344943582427        0.142421839011429E-02
N     4.64888242944126         1.84062276342339       -0.685424206522217E-02
N     4.38153340021932         2.40876837050858        0.605733725726115E-01
N     4.04508497187474         2.93892626146237       -0.157265995530038E-01
N     3.64484313710706         3.42273552964344        0.200131205109581    
N     3.18711994874345         3.85256621387895        0.515893134914545E-01
N     2.67913397489498         4.22163962751008        0.209796713835770    
N     2.12889645782536         4.52413526233010        0.290420649880762E-01
N     1.54508497187474         4.75528258147577       -0.196551854442891    
N    0.936906572928624         4.91143625364344        0.189663931911353E-01
N    0.313952597646568         4.99013364214136        0.704774403931239E-01
N   -0.313952597646567         4.99013364214136       -0.263603070159495E-01
N   -0.936906572928623         4.91143625364344       -0.263603070159495E-01
N    -1.54508497187474         4.75528258147577        0.704774403931239E-01
N    -2.12889645782536         4.52413526233010        0.189663931911353E-01
N    -2.67913397489498         4.22163962751007       -0.196551854442891    
N    -3.18711994874345         3.85256621387895        0.290420649880762E-01
N    -3.64484313710706         3.42273552964344        0.209796713835770    
N    -4.04508497187474         2.93892626146237        0.515893134914545E-01
N    -4.38153340021932         2.40876837050858        0.200131205109581    
N    -4.64888242944126         1.84062276342339       -0.157265995530038E-01
N    -4.84291580564315         1.24344943582428        0.605733725726115E-01
N    -4.96057350657239        0.626666167821523       -0.685424206522217E-02
N    -5.00000000000000        0.612323399573677E-15    0.142421839011429E-02
N    -4.96057350657239       -0.626666167821522        0.698456221039058E-02
N    -4.84291580564316        -1.24344943582427        0.142421839011429E-02
N    -4.64888242944126        -1.84062276342339       -0.685424206522217E-02
N    -4.38153340021932        -2.40876837050858        0.605733725726115E-01
N    -4.04508497187474        -2.93892626146236       -0.157265995530038E-01
N    -3.64484313710706        -3.42273552964344        0.200131205109581    
N    -3.18711994874345        -3.85256621387895        0.515893134914545E-01
N    -2.67913397489498        -4.22163962751008        0.209796713835770    
N    -2.12889645782536        -4.52413526233010        0.290420649880762E-01
N    -1.54508497187474        -4.75528258147577       -0.196551854442891    
N   -0.936906572928623        -4.91143625364344        0.189663931911353E-01
N   -0.313952597646566        -4.99013364214136        0.704774403931239E-01
N    0.313952597646564        -4.99013364214136       -0.263603070159495E-01
N    0.936906572928621        -4.91143625364344       -0.263603070159495E-01
N     1.54508497187474        -4.75528258147577        0.704774403931239E-01
N     2.12889645782536        -4.52413526233010        0.189663931911353E-01
N     2.67913397489498        -4.22163962751008       -0.196551854442891    
N     3.18711994874345        -3.85256621387895        0.290420649880762E-01
N     3.64484313710706        -3.42273552964344        0.209796713835770    
N     4.04508497187474        -2.93892626146237        0.515893134914545E-01
N     4.38153340021932        -2.40876837050858        0.200131205109581    
N     4.64888242944126        -1.84062276342339       -0.157265995530038E-01
N     4.84291580564315        -1.24344943582428        0.605733725726115E-01
N     4.96057350657239       -0.626666167821523       -0.685424206522217E-02
N     5.00000000000000       -0.122464679914735E-14    0.142421839011429E-02
          50

N     4.96057350657239        0.626666167821521       -0.321616829397000E-01
N     4.84291580564316         1.24344943582427        0.413004541675344E-01
N     4.64888242944126         1.84062276342339       -0.423191295133912E-01
N     4.38153340021932         2.40876837050858        0.980969949719573E-01
N     4.04508497187474         2.93892626146237       -0.298638465611404E-01
N     3.64484313710706         3.42273552964344        0.217551071557615    
N     3.18711994874345         3.85256621387895        0.704424241012530E-01
N     2.67913397489498         4.22163962751008        0.161254356630303    
N     2.12889645782536         4.52413526233010        0.366752573442799E-01
N     1.54508497187474         4.75528258147577       -0.224301208769340    
N    0.936906572928624         4.91143625364344        0.278064672005051E-01
N    0.313952597646568         4.99013364214136        0.126550143327924    
N   -0.313952597646567         4.99013364214136       -0.671121429876550E-01
N   -0.936906572928623         4.91143625364344       -0.671121429876550E-01
N    -1.54508497187474         4.75528258147577        0.126550143327924    
N    -2.12889645782536         4.52413526233010        0.278064672005051E-01
N    -2.67913397489498         4.22163962751007       -0.224301208769340    
N    -3.18711994874345         3.85256621387895        0.366752573442799E-01
N    -3.64484313710706         3.42273552964344        0.161254356630303    
N    -4.04508497187474         2.93892626146237        0.704424241012530E-01
N    -4.38153340021932         2.40876837050858        0.217551071557615    
N    -4.64888242944126         1.84062276342339       -0.298638465611404E-01
N    -4.84291580564315         1.24344943582428        0.980969949719573E-01
N    -4.96057350657239        0.626666167821523       -0.423191295133912E-01
N    -5.00000000000000        0.612323399573677E-15    0.413004541675344E-01
N    -4.96057350657239       -0.626666167821522       -0.321616829397000E-01
N    -4.84291580564316        -1.24344943582427        0.413004541675344E-01
N    -4.64888242944126        -1.84062276342339       -0.423191295133912E-01
N    -4.38153340021932        -2.40876837050858        0.980969949719573E-01
N    -4.04508497187474        -2.93892626146236       -0.298638465611404E-01
N    -3.64484313710706        -3.42273552964344        0.217551071557615    
N    -3.18711994874345        -3.85256621387895        0.704424241012530E-01
N    -2.67913397489498        -4.22163962751008        0.161254356630303    
N    -2.12889645782536        -4.52413526233010        0.366752573442799E-01
N    -1.54508497187474        -4.75528258147577       -0.224301208769340    
N   -0.936906572928623        -4.91143625364344        0.278064672005051E-01
N   -0.313952597646566        -4.99013364214136        0.126550143327924    
N    0.313952597646564        -4.99013364214136       -0.671121429876550E-01
N    0.936906572928621        -4.91143625364344       -0.671121429876550E-01
N     1.54508497187474        -4.75528258147577        0.126550143327924    
N     2.12889645782536        -4.52413526233010        0.278064672005051E-01
N     2.67913397489498        -4.22163962751008       -0.224301208769340    
N     3.18711994874345        -3.85256621387895        0.366752573442799E-01
N     3.64484313710706        -3.42273552964344        0.161254356630303    
N     4.04508497187474        -2.93892626146237        0.704424241012530E-01
N     4.38153340021932        -2.40876837050858        0.217551071557615    
N     4.64888242944126        -1.84062276342339       -0.298638465611404E-01
N     4.84291580564315        -1.24344943582428        0.980969949719573E-01
N     4.96057350657239       -0.626666167821523       -0.423191295133912E-01
N     5.00000000000000       -0.122464679914735E-14    0.413004541675344E-01
          50

N     4.96057350657239        0.626666167821521       -0.655115672315027E-01
N     4.84291580564316         1.24344943582427        0.749842656977504E-01
N     4.64888242944126         1.84062276342339       -0.689384271389314E-01
N     4.38153340021932         2.40876837050858        0.125036219618910    
N     4.04508497187474         2.93892626146237       -0.291735993622947E-01
N     3.64484313710706         3.42273552964344        0.219376034660188    
N     3.18711994874345         3.85256621387895        0.986683181095188E-01
N     2.67913397489498         4.22163962751008        0.104167052177274    
N     2.12889645782536         4.52413526233010        0.389282788725637E-01
N     1.54508497187474         4.75528258147577       -0.231701993428573    
N    0.936906572928624         4.91143625364344        0.305819926538861E-01
N    0.313952597646568         4.99013364214136        0.171009741225169    
N   -0.313952597646567         4.99013364214136       -0.100182099469714    
N   -0.936906572928623         4.91143625364344       -0.100182099469714    
N    -1.54508497187474         4.75528258147577        0.171009741225169    
N    -2.12889645782536         4.52413526233010        0.305819926538861E-01
N    -2.67913397489498         4.22163962751007       -0.231701993428573    
N    -3.18711994874345         3.85256621387895        0.389282788725637E-01
N    -3.64484313710706         3.42273552964344        0.104167052177274    
N    -4.04508497187474         2.93892626146237        0.986683181095188E-01
N    -4.38153340021932         2.40876837050858        0.219376034660188    
N    -4.64888242944126         1.84062276342339       -0.291735993622947E-01
N    -4.84291580564315         1.24344943582428        0.125036219618910    
N    -4.96057350657239        0.626666167821523       -0.689384271389314E-01
N    -5.00000000000000        0.612323399573677E-15    0.749842656977504E-01
N    -4.96057350657239       -0.626666167821522       -0.655115672315027E-01
N    -4.84291580564316        -1.24344943582427        0.749842656977504E-01
N    -4.64888242944126        -1.84062276342339       -0.689384271389314E-01
N    -4.38153340021932        -2.40876837050858        0.125036219618910    
N    -4.04508497187474        -2.93892626146236       -0.291735993622947E-01
N    -3.64484313710706        -3.42273552964344        0.219376034660188    
N    -3.18711994874345        -3.85256621387895        0.986683181095188E-01
N    -2.67913397489498        -4.22163962751008        0.104167052177274    
N    -2.12889645782536        -4.52413526233010        0.389282788725637E-01
N    -1.54508497187474        -4.75528258147577       -0.231701993428573    
N   -0.936906572928623        -4.91143625364344        0.305819926538861E-01
N   -0.313952597646566        -4.99013364214136        0.171009741225169    
N    0.313952597646564        -4.99013364214136       -0.100182099469714    
N    0.936906572928621        -4.91143625364344       -0.100182099469714    
N     1.54508497187474        -4.75528258147577        0.171009741225169    
N     2.12889645782536        -4.52413526233010        0.305819926538861E-01
N     2.67913397489498        -4.22163962751008       -0.231701993428573    
N     3.18711994874345        -3.85256621387895        0.389282788725637E-01
N     3.64484313710706        -3.42273552964344        0.104167052177274    
N     4.04508497187474        -2.93892626146237        0.986683181095188E-01
N     4.38153340021932        -2.40876837050858        0.219376034660188    
N     4.64888242944126        -1.84062276342339       -0.291735993622947E-01
N     4.84291580564315        -1.24344943582428        0.125036219618910    
N     4.96057350657239       -0.626666167821523       -0.689384271389314E-01
N     5.00000000000000       -0.122464679914735E-14    0.749842656977504E-01
          50

N     4.96057350657239        0.626666167821521       -0.877717394302127E-01
N     4.84291580564316         1.24344943582427        0.974488466884771E-01
N     4.64888242944126         1.84062276342339       -0.822153555679735E-01
N     4.38153340021932         2.40876837050858        0.138238658197131    
N     4.04508497187474         2.93892626146237       -0.125750165560549E-01
N     3.64484313710706         3.42273552964344        0.206598859430099    
N     3.18711994874345         3.85256621387895        0.131850630121242    
N     2.67913397489498         4.22163962751008        0.442585626574718E-01
N     2.12889645782536         4.52413526233010        0.330814897142530E-01
N     1.54508497187474         4.75528258147577       -0.217971237830418    
N    0.936906572928624         4.91143625364344        0.285317323306682E-01
N    0.313952597646568         4.99013364214136        0.199133830753955    
N   -0.313952597646567         4.99013364214136       -0.122495130223749    
N   -0.936906572928623         4.91143625364344       -0.122495130223749    
N    -1.54508497187474         4.75528258147577        0.199133830753955    
N    -2.12889645782536         4.52413526233010        0.285317323306682E-01
N    -2.67913397489498         4.22163962751007       -0.217971237830418    
N    -3.18711994874345         3.85256621387895        0.330814897142530E-01
N    -3.64484313710706         3.42273552964344        0.442585626574718E-01
N    -4.04508497187474         2.93892626146237        0.131850630121242    
N    -4.38153340021932         2.40876837050858        0.206598859430099    
N    -4.64888242944126         1.84062276342339       -0.125750165560549E-01
N    -4.84291580564315         1.24344943582428        0.138238658197131    
N    -4.96057350657239        0.626666167821523       -0.822153555679735E-01
N    -5.00000000000000        0.612323399573677E-15    0.974488466884771E-01
N    -4.96057350657239       -0.626666167821522       -0.877717394302127E-01
N    -4.84291580564316        -1.24344943582427        0.974488466884771E-01
N    -4.64888242944126        -1.84062276342339       -0.822153555679735E-01
N    -4.38153340021932        -2.40876837050858        0.138238658197131    
N    -4.04508497187474        -2.93892626146236       -0.125750165560549E-01
N    -3.64484313710706        -3.42273552964344        0.206598859430099    
N    -3.18711994874345        -3.85256621387895        0.131850630121242    
N    -2.67913397489498        -4.22163962751008        0.442585626574718E-01
N    -2.12889645782536        -4.52413526233010        0.330814897142530E-01
N    -1.54508497187474        -4.75528258147577       -0.217971237830418    
N   -0.936906572928623        -4.91143625364344        0.285317323306682E-01
N   -0.313952597646566        -4.99013364214136        0.199133830753955    
N    0.313952597646564        -4.99013364214136       -0.122495130223749    
N    0.936906572928621        -4.91143625364344       -0.122495130223749    
N     1.54508497187474        -4.75528258147577        0.199133830753955    
N     2.12889645782536        -4.52413526233010        0.285317323306682E-01
N     2.67913397489498        -4.22163962751008       -0.217971237830418    
N     3.18711994874345        -3.85256621387895        0.330814897142530E-01
N     3.64484313710706        -3.42273552964344        0.442585626574718E-01
N     4.04508497187474        -2.93892626146237        0.131850630121242    
N     4.38153340021932        -2.40876837050858        0.206598859430099    
N     4.64888242944126        -1.84062276342339       -0.125750165560549E-01
N     4.84291580564315        -1.24344943582428        0.138238658197131    
N     4.96057350657239       -0.626666167821523       -0.822153555679735E-01
N     5.00000000000000       -0.122464679914735E-14    0.974488466884771E-01
          50

N     4.96057350657239        0.626666167821521       -0.954092989521178E-01
N     4.84291580564316         1.24344943582427        0.105517015635656    
N     4.64888242944126         1.84062276342339       -0.796913289891942E-01
N     4.38153340021932         2.40876837050858        0.136791017523061    
N     4.04508497187474         2.93892626146237        0.186366463970298E-01
N     3.64484313710706         3.42273552964344        0.182190180518853    
N     3.18711994874345         3.85256621387895        0.164493776208444    
N     2.67913397489498         4.22163962751008       -0.126471038759354E-01
N     2.12889645782536         4.52413526233010        0.177794928994345E-01
N     1.54508497187474         4.75528258147577       -0.184512359935802    
N    0.936906572928624         4.91143625364344        0.234663173475494E-01
N    0.313952597646568         4.99013364214136        0.207732150434720    
N   -0.313952597646567         4.99013364214136       -0.132051154687762    
N   -0.936906572928623         4.91143625364344       -0.132051154687762    
N    -1.54508497187474         4.75528258147577        0.207732150434720    
N    -2.12889645782536         4.52413526233010        0.234663173475494E-01
N    -2.67913397489498         4.22163962751007       -0.184512359935802    
N    -3.18711994874345         3.85256621387895        0.177794928994345E-01
N    -3.64484313710706         3.42273552964344       -0.126471038759354E-01
N    -4.04508497187474         2.93892626146237        0.164493776208444    
N    -4.38153340021932         2.40876837050858        0.182190180518853    
N    -4.64888242944126         1.84062276342339        0.186366463970298E-01
N    -4.84291580564315         1.24344943582428        0.136791017523061    
N    -4.96057350657239        0.626666167821523       -0.796913289891942E-01
N    -5.00000000000000        0.612323399573677E-15    0.105517015635656    
N    -4.96057350657239       -0.626666167821522       -0.954092989521178E-01
N    -4.84291580564316        -1.24344943582427        0.105517015635656    
N    -4.64888242944126        -1.84062276342339       -0.796913289891942E-01
N    -4.38153340021932        -2.40876837050858        0.136791017523061    
N    -4.04508497187474        -2.93892626146236        0.186366463970298E-01
N    -3.64484313710706        -3.42273552964344        0.182190180518853    
N    -3.18711994874345        -3.85256621387895        0.164493776208444    
N    -2.67913397489498        -4.22163962751008       -0.126471038759354E-01
N    -2.12889645782536        -4.52413526233010        0.177794928994345E-01
N    -1.54508497187474        -4.75528258147577       -0.184512359935802    
N   -0.936906572928623        -4.91143625364344        0.234663173475494E-01
N   -0.313952597646566        -4.99013364214136        0.207732150434720    
N    0.313952597646564        -4.99013364214136       -0.132051154687762    
N    0.936906572928621        -4.91143625364344       -0.132051154687762    
N     1.54508497187474        -4.75528258147577        0.207732150434720    
N     2.12889645782536        -4.52413526233010        0.234663173475494E-01
N     2.67913397489498        -4.22163962751008       -0.184512359935802    
N     3.18711994874345        -3.85256621387895        0.177794928994345E-01
N     3.64484313710706        -3.42273552964344       -0.126471038759354E-01
N     4.04508497187474        -2.93892626146237        0.164493776208444    
N     4.38153340021932        -2.40876837050858        0.182190180518853    
N     4.64888242944126        -1.84062276342339        0.186366463970298E-01
N     4.84291580564315        -1.24344943582428        0.136791017523061    
N     4.96057350657239       -0.626666167821523       -0.796913289891942E-01
N     5.00000000000000       -0.122464679914735E-14    0.105517015635656    
          50

N     4.96057350657239        0.626666167821521       -0.871817664536305E-01
N     4.84291580564316         1.24344943582427        0.983487989362769E-01
N     4.64888242944126         1.84062276342339       -0.613018361987271E-01
N     4.38153340021932         2.40876837050858        0.122137323798871    
N     4.04508497187474         2.93892626146237        0.609734266401553E-01
N     3.64484313710706         3.42273552964344        0.150595837315771    
N     3.18711994874345         3.85256621387895        0.190804991232823    
N     2.67913397489498         4.22163962751008       -0.613571717806205E-01
N     2.12889645782536         4.52413526233010       -0.668752315412397E-02
N     1.54508497187474         4.75528258147577       -0.134785695043859    
N    0.936906572928624         4.91143625364344        0.174436159846687E-01
N    0.313952597646568         4.99013364214136        0.195549744991868    
N   -0.313952597646567         4.99013364214136       -0.128130629496292    
N   -0.936906572928623         4.91143625364344       -0.128130629496292    
N    -1.54508497187474         4.75528258147577        0.195549744991868    
N    -2.12889645782536         4.52413526233010        0.174436159846687E-01
N    -2.67913397489498         4.22163962751007       -0.134785695043859    
N    -3.18711994874345         3.85256621387895       -0.668752315412397E-02
N    -3.64484313710706         3.42273552964344       -0.613571717806205E-01
N    -4.04508497187474         2.93892626146237        0.190804991232823    
N    -4.38153340021932         2.40876837050858        0.150595837315771    
N    -4.64888242944126         1.84062276342339        0.609734266401553E-01
N    -4.84291580564315         1.24344943582428        0.122137323798871    
N    -4.96057350657239        0.626666167821523       -0.613018361987271E-01
N    -5.00000000000000        0.612323399573677E-15    0.983487989362769E-01
N    -4.96057350657239       -0.626666167821522       -0.871817664536305E-01
N    -4.84291580564316        -1.24344943582427        0.983487989362769E-01
N    -4.64888242944126        -1.84062276342339       -0.613018361987271E-01
N    -4.38153340021932        -2.40876837050858        0.122137323798871    
N    -4.04508497187474        -2.93892626146236        0.609734266401553E-01
N    -3.64484313710706        -3.42273552964344        0.150595837315771    
N    -3.18711994874345        -3.85256621387895        0.190804991232823    
N    -2.67913397489498        -4.22163962751008       -0.613571717806205E-01
N    -2.12889645782536        -4.52413526233010       -0.668752315412397E-02
N    -1.54508497187474        -4.75528258147577       -0.134785695043859    
N   -0.936906572928623        -4.91143625364344        0.174436159846687E-01
N   -0.313952597646566        -4.99013364214136        0.195549744991868    
N    0.313952597646564        -4.99013364214136       -0.128130629496292    
N    0.936906572928621        -4.91143625364344       -0.128130629496292    
N     1.54508497187474        -4.75528258147577        0.195549744991868    
N     2.12889645782536        -4.52413526233010        0.174436159846687E-01
N     2.67913397489498        -4.22163962751008       -0.134785695043859    
N     3.18711994874345        -3.85256621387895       -0.668752315412397E-02
N     3.64484313710706        -3.42273552964344       -0.613571717806205E-01
N     4.04508497187474        -2.93892626146237        0.190804991232823    
N     4.38153340021932        -2.40876837050858        0.150595837315771    
N     4.64888242944126        -1.84062276342339        0.609734266401553E-01
N     4.84291580564315        -1.24344943582428        0.122137323798871    
N     4.96057350657239       -0.626666167821523       -0.613018361987271E-01
N     5.00000000000000       -0.122464679914735E-14    0.983487989362769E-01
          50

N     4.96057350657239        0.626666167821521       -0.643017814045069E-01
N     4.84291580564316         1.24344943582427        0.775596251025065E-01
N     4.64888242944126         1.84062276342339       -0.293580049423917E-01
N     4.38153340021932         2.40876837050858        0.978299054403345E-01
N     4.04508497187474         2.93892626146237        0.109262625048433    
N     3.64484313710706         3.42273552964344        0.117019321560124    
N     3.18711994874345         3.85256621387895        0.205533142675609    
N     2.67913397489498         4.22163962751008       -0.979384369481428E-01
N     2.12889645782536         4.52413526233010       -0.383388837970938E-01
N     1.54508497187474         4.75528258147577       -0.739412287948945E-01
N    0.936906572928624         4.91143625364344        0.124197684905174E-01
N    0.313952597646568         4.99013364214136        0.163475622125208    
N   -0.313952597646567         4.99013364214136       -0.111372565257962    
N   -0.936906572928623         4.91143625364344       -0.111372565257962    
N    -1.54508497187474         4.75528258147577        0.163475622125208    
N    -2.12889645782536         4.52413526233010        0.124197684905174E-01
N    -2.67913397489498         4.22163962751007       -0.739412287948945E-01
N    -3.18711994874345         3.85256621387895       -0.383388837970938E-01
N    -3.64484313710706         3.42273552964344       -0.979384369481428E-01
N    -4.04508497187474         2.93892626146237        0.205533142675609    
N    -4.38153340021932         2.40876837050858        0.117019321560124    
N    -4.64888242944126         1.84062276342339        0.109262625048433    
N    -4.84291580564315         1.24344943582428        0.978299054403345E-01
N    -4.96057350657239        0.626666167821523       -0.293580049423917E-01
N    -5.00000000000000        0.612323399573677E-15    0.775596251025065E-01
N    -4.96057350657239       -0.626666167821522       -0.643017814045069E-01
N    -4.84291580564316        -1.24344943582427        0.775596251025065E-01
N    -4.64888242944126        -1.84062276342339       -0.293580049423917E-01
N    -4.38153340021932        -2.40876837050858        0.978299054403345E-01
N    -4.04508497187474        -2.93892626146236        0.109262625048433    
N    -3.64484313710706        -3.42273552964344        0.117019321560124    
N    -3.18711994874345        -3.85256621387895        0.205533142675609    
N    -2.67913397489498        -4.22163962751008       -0.979384369481428E-01
N    -2.12889645782536        -4.52413526233010       -0.383388837970938E-01
N    -1.54508497187474        -4.75528258147577       -0.739412287948945E-01
N   -0.936906572928623        -4.91143625364344        0.124197684905174E-01
N   -0.313952597646566        -4.99013364214136        0.163475622125208    
N    0.313952597646564        -4.99013364214136       -0.111372565257962    
N    0.936906572928621        -4.91143625364344       -0.111372565257962    
N     1.54508497187474        -4.75528258147577        0.163475622125208    
N     2.12889645782536        -4.52413526233010        0.124197684905174E-01
N     2.67913397489498        -4.22163962751008       -0.739412287948945E-01
N     3.18711994874345        -3.85256621387895       -0.383388837970938E-01
N     3.64484313710706        -3.42273552964344       -0.979384369481428E-01
N     4.04508497187474        -2.93892626146237        0.205533142675609    
N     4.38153340021932        -2.40876837050858        0.117019321560124    
N     4.64888242944126        -1.84062276342339        0.109262625048433    
N     4.84291580564315        -1.24344943582428        0.978299054403345E-01
N     4.96057350657239       -0.626666167821523       -0.293580049423917E-01
N     5.00000000000000       -0.122464679914735E-14    0.775596251025065E-01
          50

N     4.96057350657239        0.626666167821521       -0.302141471331126E-01
N     4.84291580564316         1.24344943582427        0.469539786064099E-01
N     4.64888242944126         1.84062276342339        0.118395720806152E-01
N     4.38153340021932         2.40876837050858        0.689535552842793E-01
N     4.04508497187474         2.93892626146237        0.157401089357662    
N     3.64484313710706         3.42273552964344        0.865992108142807E-01
N     3.18711994874345         3.85256621387895        0.204744835666703    
N     2.67913397489498         4.22163962751008       -0.120157866764200    
N     2.12889645782536         4.52413526233010       -0.737087649033161E-01
N     1.54508497187474         4.75528258147577       -0.825467982928774E-02
N    0.936906572928624         4.91143625364344        0.992625396330797E-02
N    0.313952597646568         4.99013364214136        0.114523560958277    
N   -0.313952597646567         4.99013364214136       -0.837136716681804E-01
N   -0.936906572928623         4.91143625364344       -0.837136716681804E-01
N    -1.54508497187474         4.75528258147577        0.114523560958277    
N    -2.12889645782536         4.52413526233010        0.992625396330797E-02
N    -2.67913397489498         4.22163962751007       -0.825467982928774E-02
N    -3.18711994874345         3.85256621387895       -0.737087649033161E-01
N    -3.64484313710706         3.42273552964344       -0.120157866764200    
N    -4.04508497187474         2.93892626146237        0.204744835666703    
N    -4.38153340021932         2.40876837050858        0.865992108142807E-01
N    -4.64888242944126         1.84062276342339        0.157401089357662    
N    -4.84291580564315         1.24344943582428        0.689535552842793E-01
N    -4.96057350657239        0.626666167821523        0.118395720806152E-01
N    -5.00000000000000        0.612323399573677E-15    0.469539786064099E-01
N    -4.96057350657239       -0.626666167821522       -0.302141471331126E-01
N    -4.84291580564316        -1.24344943582427        0.469539786064099E-01
N    -4.64888242944126        -1.84062276342339        0.118395720806152E-01
N    -4.38153340021932        -2.40876837050858        0.689535552842793E-01
N    -4.04508497187474        -2.93892626146236        0.157401089357662    
N    -3.64484313710706        -3.42273552964344        0.865992108142807E-01
N    -3.18711994874345        -3.85256621387895        0.204744835666703    
N    -2.67913397489498        -4.22163962751008       -0.120157866764200    
N    -2.12889645782536        -4.52413526233010       -0.737087649033161E-01
N    -1.54508497187474        -4.75528258147577       -0.825467982928774E-02
N   -0.936906572928623        -4.91143625364344        0.992625396330797E-02
N   -0.313952597646566        -4.99013364214136        0.114523560958277    
N    0.313952597646564        -4.99013364214136       -0.837136716681804E-01
N    0.936906572928621        -4.91143625364344       -0.837136716681804E-01
N     1.54508497187474        -4.75528258147577        0.114523560958277    
N     2.12889645782536        -4.52413526233010        0.992625396330797E-02
N     2.67913397489498        -4.22163962751008       -0.825467982928774E-02
N     3.18711994874345        -3.85256621387895       -0.737087649033161E-01
N     3.64484313710706        -3.42273552964344       -0.120157866764200    
N     4.04508497187474        -2.93892626146237        0.204744835666703    
N     4.38153340021932        -2.40876837050858        0.865992108142807E-01
N     4.64888242944126        -1.84062276342339        0.157401089357662    
N     4.84291580564315        -1.24344943582428        0.689535552842793E-01
N     4.96057350657239       -0.626666167821523        0.118395720806152E-01
N     5.00000000000000       -0.122464679914735E-14    0.469539786064099E-01
          50

N     4.96057350657239        0.626666167821521        0.997619478344751E-02
N     4.84291580564316         1.24344943582427        0.119195396283145E-01
N     4.64888242944126         1.84062276342339        0.566910518392464E-01
N     4.38153340021932         2.40876837050858        0.413133497875916E-01
N     4.04508497187474         2.93892626146237        0.199241026932801    
N     3.64484313710706         3.42273552964344        0.636070069564863E-01
N     3.18711994874345         3.85256621387895        0.186426555223166    
N     2.67913397489498         4.22163962751008       -0.127678070124855    
N     2.12889645782536         4.52413526233010       -0.108280576777670    
N     1.54508497187474         4.75528258147577        0.555674925209531E-01
N    0.936906572928624         4.91143625364344        0.108200475377666E-01
N    0.313952597646568         4.99013364214136        0.535763307510866E-01
N   -0.313952597646567         4.99013364214136       -0.481918516666157E-01
N   -0.936906572928623         4.91143625364344       -0.481918516666157E-01
N    -1.54508497187474         4.75528258147577        0.535763307510866E-01
N    -2.12889645782536         4.52413526233010        0.108200475377666E-01
N    -2.67913397489498         4.22163962751007        0.555674925209531E-01
N    -3.18711994874345         3.85256621387895       -0.108280576777670    
N    -3.64484313710706         3.42273552964344       -0.127678070124855    
N    -4.04508497187474         2.93892626146237        0.186426555223166    
N    -4.38153340021932         2.40876837050858        0.636070069564863E-01
N    -4.64888242944126         1.84062276342339        0.199241026932801    
N    -4.84291580564315         1.24344943582428        0.413133497875916E-01
N    -4.96057350657239        0.626666167821523        0.566910518392464E-01
N    -5.00000000000000        0.612323399573677E-15    0.119195396283145E-01
N    -4.96057350657239       -0.626666167821522        0.997619478344751E-02
N    -4.84291580564316        -1.24344943582427        0.119195396283145E-01
N    -4.64888242944126        -1.84062276342339        0.566910518392464E-01
N    -4.38153340021932        -2.40876837050858        0.413133497875916E-01
N    -4.04508497187474        -2.93892626146236        0.199241026932801    
N    -3.64484313710706        -3.42273552964344        0.636070069564863E-01
N    -3.18711994874345        -3.85256621387895        0.186426555223166    
N    -2.67913397489498        -4.22163962751008       -0.127678070124855    
N    -2.12889645782536        -4.52413526233010       -0.108280576777670    
N    -1.54508497187474        -4.75528258147577        0.555674925209531E-01
N   -0.936906572928623        -4.91143625364344        0.108200475377666E-01
N   -0.313952597646566        -4.99013364214136        0.535763307510866E-01
N    0.313952597646564        -4.99013364214136       -0.481918516666157E-01
N    0.936906572928621        -4.91143625364344       -0.481918516666157E-01
N     1.54508497187474        -4.75528258147577        0.535763307510866E-01
N     2.12889645782536        -4.52413526233010        0.108200475377666E-01
N     2.67913397489498        -4.22163962751008        0.555674925209531E-01
N     3.18711994874345        -3.85256621387895       -0.108280576777670    
N     3.64484313710706        -3.42273552964344       -0.127678070124855    
N     4.04508497187474        -2.93892626146237        0.186426555223166    
N     4.38153340021932        -2.40876837050858        0.636070069564863E-01
N     4.64888242944126        -1.84062276342339        0.199241026932801    
N     4.84291580564315        -1.24344943582428        0.413133497875916E-01
N     4.96057350657239       -0.626666167821523        0.566910518392464E-01
N     5.00000000000000       -0.122464679914735E-14    0.119195396283145E-01
          50

N     4.96057350657239        0.626666167821521        0.503323108421019E-01
N     4.84291580564316         1.24344943582427       -0.214205715293092E-01
N     4.64888242944126         1.84062276342339        0.991811522308725E-01
N     4.38153340021932         2.40876837050858        0.205124715200388E-01
N     4.04508497187474         2.93892626146237        0.229473641463879    
N     3.64484313710706         3.42273552964344        0.507875090696175E-01
N     3.18711994874345         3.85256621387895        0.150825837745220    
N     2.67913397489498         4.22163962751008       -0.121985548345815    
N     2.12889645782536         4.52413526233010       -0.137096228252067    
N     1.54508497187474         4.75528258147577        0.111132044140675    
N    0.936906572928624         4.91143625364344        0.151439602120121E-01
N    0.313952597646568         4.99013364214136       -0.130884087150598E-01
N   -0.313952597646567         4.99013364214136       -0.863201496112024E-02
N   -0.936906572928623         4.91143625364344       -0.863201496112024E-02
N    -1.54508497187474         4.75528258147577       -0.130884087150598E-01
N    -2.12889645782536         4.52413526233010        0.151439602120121E-01
N    -2.67913397489498         4.22163962751007        0.111132044140675    
N    -3.18711994874345         3.85256621387895       -0.137096228252067    
N    -3.64484313710706         3.42273552964344       -0.121985548345815    
N    -4.04508497187474         2.93892626146237        0.150825837745220    
N    -4.38153340021932         2.40876837050858        0.507875090696175E-01
N    -4.64888242944126         1.84062276342339        0.229473641463879    
N    -4.84291580564315         1.24344943582428        0.205124715200388E-01
N    -4.96057350657239        0.626666167821523        0.991811522308725E-01
N    -5.00000000000000        0.612323399573677E-15   -0.214205715293092E-01
N    -4.96057350657239       -0.626666167821522        0.503323108421019E-01
N    -4.84291580564316        -1.24344943582427       -0.214205715293092E-01
N    -4.64888242944126        -1.84062276342339        0.991811522308725E-01
N    -4.38153340021932        -2.40876837050858        0.205124715200388E-01
N    -4.04508497187474        -2.93892626146236        0.229473641463879    
N    -3.64484313710706        -3.42273552964344        0.507875090696175E-01
N    -3.18711994874345        -3.85256621387895        0.150825837745220    
N    -2.67913397489498        -4.22163962751008       -0.121985548345815    
N    -2.12889645782536        -4.52413526233010       -0.137096228252067    
N    -1.54508497187474        -4.75528258147577        0.111132044140675    
N   -0.936906572928623        -4.91143625364344        0.151439602120121E-01
N   -0.313952597646566        -4.99013364214136       -0.130884087150598E-01
N    0.313952597646564        -4.99013364214136       -0.863201496112024E-02
N    0.936906572928621        -4.91143625364344       -0.863201496112024E-02
N     1.54508497187474        -4.75528258147577       -0.130884087150598E-01
N     2.12889645782536        -4.52413526233010        0.151439602120121E-01
N     2.67913397489498        -4.22163962751008        0.111132044140675    
N     3.18711994874345        -3.85256621387895       -0.137096228252067    
N     3.64484313710706        -3.42273552964344       -0.121985548345815    
N     4.04508497187474        -2.93892626146237        0.150825837745220    
N     4.38153340021932        -2.40876837050858        0.507875090696175E-01
N     4.64888242944126        -1.84062276342339        0.229473641463879    
N     4.84291580564315        -1.24344943582428        0.205124715200388E-01
N     4.96057350657239       -0.626666167821523        0.991811522308725E-01
N     5.00000000000000       -0.122464679914735E-14   -0.214205715293092E-01
          50

N     4.96057350657239        0.626666167821521        0.850372633235354E-01
N     4.84291580564316         1.24344943582427       -0.471629641038045E-01
N     4.64888242944126         1.84062276342339        0.133816927084579    
N     4.38153340021932         2.40876837050858        0.110626354791657E-01
N     4.04508497187474         2.93892626146237        0.244378335563308    
N     3.64484313710706         3.42273552964344        0.489421954449323E-01
N     3.18711994874345         3.85256621387895        0.100481282889732    
N     2.67913397489498         4.22163962751008       -0.106067979895570    
N     2.12889645782536         4.52413526233010       -0.155459793314112    
N     1.54508497187474         4.75528258147577        0.153063329056479    
N    0.936906572928624         4.91143625364344        0.221188349788866E-01
N    0.313952597646568         4.99013364214136       -0.784459465052930E-01
N   -0.313952597646567         4.99013364214136        0.307545116599242E-01
N   -0.936906572928623         4.91143625364344        0.307545116599242E-01
N    -1.54508497187474         4.75528258147577       -0.784459465052930E-01
N    -2.12889645782536         4.52413526233010        0.221188349788866E-01
N    -2.67913397489498         4.22163962751007        0.153063329056479    
N    -3.18711994874345         3.85256621387895       -0.155459793314112    
N    -3.64484313710706         3.42273552964344       -0.106067979895570    
N    -4.04508497187474         2.93892626146237        0.100481282889732    
N    -4.38153340021932         2.40876837050858        0.489421954449323E-01
N    -4.64888242944126         1.84062276342339        0.244378335563308    
N    -4.84291580564315         1.24344943582428        0.110626354791657E-01
N    -4.96057350657239        0.626666167821523        0.133816927084579    
N    -5.00000000000000        0.612323399573677E-15   -0.471629641038045E-01
N    -4.96057350657239       -0.626666167821522        0.850372633235354E-01
N    -4.84291580564316        -1.24344943582427       -0.471629641038045E-01
N    -4.64888242944126        -1.84062276342339        0.133816927084579    
N    -4.38153340021932        -2.40876837050858        0.110626354791657E-01
N    -4.04508497187474        -2.93892626146236        0.244378335563308    
N    -3.64484313710706        -3.42273552964344        0.489421954449323E-01
N    -3.18711994874345        -3.85256621387895        0.100481282889732    
N    -2.67913397489498        -4.22163962751008       -0.106067979895570    
N    -2.12889645782536        -4.52413526233010       -0.155459793314112    
N    -1.54508497187474        -4.75528258147577        0.153063329056479    
N   -0.936906572928623        -4.91143625364344        0.221188349788866E-01
N   -0.313952597646566        -4.99013364214136       -0.784459465052930E-01
N    0.313952597646564        -4.99013364214136        0.307545116599242E-01
N    0.936906572928621        -4.91143625364344        0.307545116599242E-01
N     1.54508497187474        -4.75528258147577       -0.784459465052930E-01
N     2.12889645782536        -4.52413526233010        0.221188349788866E-01
N     2.67913397489498        -4.22163962751008        0.153063329056479    
N     3.18711994874345        -3.85256621387895       -0.155459793314112    
N     3.64484313710706        -3.42273552964344       -0.106067979895570    
N     4.04508497187474        -2.93892626146237        0.100481282889732    
N     4.38153340021932        -2.40876837050858        0.489421954449323E-01
N     4.64888242944126        -1.84062276342339        0.244378335563308    
N     4.84291580564315        -1.24344943582428        0.110626354791657E-01
N     4.96057350657239       -0.626666167821523        0.133816927084579    
N     5.00000000000000       -0.122464679914735E-14   -0.471629641038045E-01
          50

N     4.96057350657239        0.626666167821521        0.109319386551256    
N     4.84291580564316         1.24344943582427       -0.605365638369999E-01
N     4.64888242944126         1.84062276342339        0.156472643804751    
N     4.38153340021932         2.40876837050858        0.156639792087915E-01
N     4.04508497187474         2.93892626146237        0.242326713158079    
N     3.64484313710706         3.42273552964344        0.568192924541660E-01
N     3.18711994874345         3.85256621387895        0.399353284877109E-01
N     2.67913397489498         4.22163962751008       -0.838926496500623E-01
N     2.12889645782536         4.52413526233010       -0.159639305755628    
N     1.54508497187474         4.75528258147577        0.177584195565229    
N    0.936906572928624         4.91143625364344        0.302704091312271E-01
N    0.313952597646568         4.99013364214136       -0.135479139569219    
N   -0.313952597646567         4.99013364214136        0.658154037263213E-01
N   -0.936906572928623         4.91143625364344        0.658154037263213E-01
N    -1.54508497187474         4.75528258147577       -0.135479139569219    
N    -2.12889645782536         4.52413526233010        0.302704091312271E-01
N    -2.67913397489498         4.22163962751007        0.177584195565229    
N    -3.18711994874345         3.85256621387895       -0.159639305755628    
N    -3.64484313710706         3.42273552964344       -0.838926496500623E-01
N    -4.04508497187474         2.93892626146237        0.399353284877109E-01
N    -4.38153340021932         2.40876837050858        0.568192924541660E-01
N    -4.64888242944126         1.84062276342339        0.242326713158079    
N    -4.84291580564315         1.24344943582428        0.156639792087915E-01
N    -4.96057350657239        0.626666167821523        0.156472643804751    
N    -5.00000000000000        0.612323399573677E-15   -0.605365638369999E-01
N    -4.96057350657239       -0.626666167821522        0.109319386551256    
N    -4.84291580564316        -1.24344943582427       -0.605365638369999E-01
N    -4.64888242944126        -1.84062276342339        0.156472643804751    
N    -4.38153340021932        -2.40876837050858        0.156639792087915E-01
N    -4.04508497187474        -2.93892626146236        0.242326713158079    
N    -3.64484313710706        -3.42273552964344        0.568192924541660E-01
N    -3.18711994874345        -3.85256621387895        0.399353284877109E-01
N    -2.67913397489498        -4.22163962751008       -0.838926496500623E-01
N    -2.12889645782536        -4.52413526233010       -0.159639305755628    
N    -1.54508497187474        -4.75528258147577        0.177584195565229    
N   -0.936906572928623        -4.91143625364344        0.302704091312271E-01
N   -0.313952597646566        -4.99013364214136       -0.135479139569219    
N    0.313952597646564        -4.99013364214136        0.658154037263213E-01
N    0.936906572928621        -4.91143625364344        0.658154037263213E-01
N     1.54508497187474        -4.75528258147577       -0.135479139569219    
N     2.12889645782536        -4.52413526233010        0.302704091312271E-01
N     2.67913397489498        -4.22163962751008        0.177584195565229    
N     3.18711994874345        -3.85256621387895       -0.159639305755628    
N     3.64484313710706        -3.42273552964344       -0.838926496500623E-01
N     4.04508497187474        -2.93892626146237        0.399353284877109E-01
N     4.38153340021932        -2.40876837050858        0.568192924541660E-01
N     4.64888242944126        -1.84062276342339        0.242326713158079    
N     4.84291580564315        -1.24344943582428        0.156639792087915E-01
N     4.96057350657239       -0.626666167821523        0.156472643804751    
N     5.00000000000000       -0.122464679914735E-14   -0.605365638369999E-01
          50

N     4.96057350657239        0.626666167821521        0.120205751409254    
N     4.84291580564316         1.24344943582427       -0.586306860611904E-01
N     4.64888242944126         1.84062276342339        0.165010593780314    
N     4.38153340021932         2.40876837050858        0.347645562235228E-01
N     4.04508497187474         2.93892626146237        0.223968775435089    
N     3.64484313710706         3.42273552964344        0.713277670431232E-01
N     3.18711994874345         3.85256621387895       -0.248312412983168E-01
N     2.67913397489498         4.22163962751008       -0.597663064554322E-01
N     2.12889645782536         4.52413526233010       -0.147467604958238    
N     1.54508497187474         4.75528258147577        0.182904663544961    
N    0.936906572928624         4.91143625364344        0.376739043305807E-01
N    0.313952597646568         4.99013364214136       -0.177957319879812    
N   -0.313952597646567         4.99013364214136        0.929000225907672E-01
N   -0.936906572928623         4.91143625364344        0.929000225907672E-01
N    -1.54508497187474         4.75528258147577       -0.177957319879812    
N    -2.12889645782536         4.52413526233010        0.376739043305807E-01
N    -2.67913397489498         4.22163962751007        0.182904663544961    
N    -3.18711994874345         3.85256621387895       -0.147467604958238    
N    -3.64484313710706         3.42273552964344       -0.597663064554322E-01
N    -4.04508497187474         2.93892626146237       -0.248312412983168E-01
N    -4.38153340021932         2.40876837050858        0.713277670431232E-01
N    -4.64888242944126         1.84062276342339        0.223968775435089    
N    -4.84291580564315         1.24344943582428        0.347645562235228E-01
N    -4.96057350657239        0.626666167821523        0.165010593780314    
N    -5.00000000000000        0.612323399573677E-15   -0.586306860611904E-01
N    -4.96057350657239       -0.626666167821522        0.120205751409254    
N    -4.84291580564316        -1.24344943582427       -0.586306860611904E-01
N    -4.64888242944126        -1.84062276342339        0.165010593780314    
N    -4.38153340021932        -2.40876837050858        0.347645562235228E-01
N    -4.04508497187474        -2.93892626146236        0.223968775435089    
N    -3.64484313710706        -3.42273552964344        0.713277670431232E-01
N    -3.18711994874345        -3.85256621387895       -0.248312412983168E-01
N    -2.67913397489498        -4.22163962751008       -0.597663064554322E-01
N    -2.12889645782536        -4.52413526233010       -0.147467604958238    
N    -1.54508497187474        -4.75528258147577        0.182904663544961    
N   -0.936906572928623        -4.91143625364344        0.376739043305807E-01
N   -0.313952597646566        -4.99013364214136       -0.177957319879812    
N    0.313952597646564        -4.99013364214136        0.929000225907672E-01
N    0.936906572928621        -4.91143625364344        0.929000225907672E-01
N     1.54508497187474        -4.75528258147577       -0.177957319879812    
N     2.12889645782536        -4.52413526233010        0.376739043305807E-01
N     2.67913397489498        -4.22163962751008        0.182904663544961    
N     3.18711994874345        -3.85256621387895       -0.147467604958238    
N     3.64484313710706        -3.42273552964344       -0.597663064554322E-01
N     4.04508497187474        -2.93892626146237       -0.248312412983168E-01
N     4.38153340021932        -2.40876837050858        0.713277670431232E-01
N     4.64888242944126        -1.84062276342339        0.223968775435089    
N     4.84291580564315        -1.24344943582428        0.347645562235228E-01
N     4.96057350657239       -0.626666167821523        0.165010593780314    
N     5.00000000000000       -0.122464679914735E-14   -0.586306860611904E-01
          50

N     4.96057350657239        0.626666167821521        0.116986832026460    
N     4.84291580564316         1.24344943582427       -0.408268416606250E-01
N     4.64888242944126         1.84062276342339        0.159582666323642    
N     4.38153340021932         2.40876837050858        0.664661064524630E-01
N     4.04508497187474         2.93892626146237        0.192077629904568    
N     3.64484313710706         3.42273552964344        0.880433497391745E-01
N     3.18711994874345         3.85256621387895       -0.871646083448099E-01
N     2.67913397489498         4.22163962751008       -0.376731053158824E-01
N     2.12889645782536         4.52413526233010       -0.118754079425066    
N     1.54508497187474         4.75528258147577        0.169373518778841    
N    0.936906572928624         4.91143625364344        0.422815492019923E-01
N    0.313952597646568         4.99013364214136       -0.201150561521873    
N   -0.313952597646567         4.99013364214136        0.109250959854340    
N   -0.936906572928623         4.91143625364344        0.109250959854340    
N    -1.54508497187474         4.75528258147577       -0.201150561521873    
N    -2.12889645782536         4.52413526233010        0.422815492019923E-01
N    -2.67913397489498         4.22163962751007        0.169373518778841    
N    -3.18711994874345         3.85256621387895       -0.118754079425066    
N    -3.64484313710706         3.42273552964344       -0.376731053158824E-01
N    -4.04508497187474         2.93892626146237       -0.871646083448099E-01
N    -4.38153340021932         2.40876837050858        0.880433497391745E-01
N    -4.64888242944126         1.84062276342339        0.192077629904568    
N    -4.84291580564315         1.24344943582428        0.664661064524630E-01
N    -4.96057350657239        0.626666167821523        0.159582666323642    
N    -5.00000000000000        0.612323399573677E-15   -0.408268416606250E-01
N    -4.96057350657239       -0.626666167821522        0.116986832026460    
N    -4.84291580564316        -1.24344943582427       -0.408268416606250E-01
N    -4.64888242944126        -1.84062276342339        0.159582666323642    
N    -4.38153340021932        -2.40876837050858        0.664661064524630E-01
N    -4.04508497187474        -2.93892626146236        0.192077629904568    
N    -3.64484313710706        -3.42273552964344        0.880433497391745E-01
N    -3.18711994874345        -3.85256621387895       -0.871646083448099E-01
N    -2.67913397489498        -4.22163962751008       -0.376731053158824E-01
N    -2.12889645782536        -4.52413526233010       -0.118754079425066    
N    -1.54508497187474        -4.75528258147577        0.169373518778841    
N   -0.936906572928623        -4.91143625364344        0.422815492019923E-01
N   -0.313952597646566        -4.99013364214136       -0.201150561521873    
N    0.313952597646564        -4.99013364214136        0.109250959854340    
N    0.936906572928621        -4.91143625364344        0.109250959854340    
N     1.54508497187474        -4.75528258147577       -0.201150561521873    
N     2.12889645782536        -4.52413526233010        0.422815492019923E-01
N     2.67913397489498        -4.22163962751008        0.169373518778841    
N     3.18711994874345        -3.85256621387895       -0.118754079425066    
N     3.64484313710706        -3.42273552964344       -0.376731053158824E-01
N     4.04508497187474        -2.93892626146237       -0.871646083448099E-01
N     4.38153340021932        -2.40876837050858        0.880433497391745E-01
N     4.64888242944126        -1.84062276342339        0.192077629904568    
N     4.84291580564315        -1.24344943582428        0.664661064524630E-01
N     4.96057350657239       -0.626666167821523        0.159582666323642    
N     5.00000000000000       -0.122464679914735E-14   -0.408268416606250E-01
          50

N     4.96057350657239        0.626666167821521        0.101321564945882    
N     4.84291580564316         1.24344943582427       -0.886990189927902E-02
N     4.64888242944126         1.84062276342339        0.142568079082217    
N     4.38153340021932         2.40876837050858        0.106789350471774    
N     4.04508497187474         2.93892626146237        0.151081204085443    
N     3.64484313710706         3.42273552964344        0.101930248853483    
N     3.18711994874345         3.85256621387895       -0.140596409643853    
N     2.67913397489498         4.22163962751008       -0.206894421197470E-01
N     2.12889645782536         4.52413526233010       -0.754426401546905E-01
N     1.54508497187474         4.75528258147577        0.139377486369267    
N    0.936906572928624         4.91143625364344        0.422848827045490E-01
N    0.313952597646568         4.99013364214136       -0.202394282512554    
N   -0.313952597646567         4.99013364214136        0.113300642290444    
N   -0.936906572928623         4.91143625364344        0.113300642290444    
N    -1.54508497187474         4.75528258147577       -0.202394282512554    
N    -2.12889645782536         4.52413526233010        0.422848827045490E-01
N    -2.67913397489498         4.22163962751007        0.139377486369267    
N    -3.18711994874345         3.85256621387895       -0.754426401546905E-01
N    -3.64484313710706         3.42273552964344       -0.206894421197470E-01
N    -4.04508497187474         2.93892626146237       -0.140596409643853    
N    -4.38153340021932         2.40876837050858        0.101930248853483    
N    -4.64888242944126         1.84062276342339        0.151081204085443    
N    -4.84291580564315         1.24344943582428        0.106789350471774    
N    -4.96057350657239        0.626666167821523        0.142568079082217    
N    -5.00000000000000        0.612323399573677E-15   -0.886990189927902E-02
N    -4.96057350657239       -0.626666167821522        0.101321564945882    
N    -4.84291580564316        -1.24344943582427       -0.886990189927902E-02
N    -4.64888242944126        -1.84062276342339        0.142568079082217    
N    -4.38153340021932        -2.40876837050858        0.106789350471774    
N    -4.04508497187474        -2.93892626146236        0.151081204085443    
N    -3.64484313710706        -3.42273552964344        0.101930248853483    
N    -3.18711994874345        -3.85256621387895       -0.140596409643853    
N    -2.67913397489498        -4.22163962751008       -0.206894421197470E-01
N    -2.12889645782536        -4.52413526233010       -0.754426401546905E-01
N    -1.54508497187474        -4.75528258147577        0.139377486369267    
N   -0.936906572928623        -4.91143625364344        0.422848827045490E-01
N   -0.313952597646566        -4.99013364214136       -0.202394282512554    
N    0.313952597646564        -4.99013364214136        0.113300642290444    
N    0.936906572928621        -4.91143625364344        0.113300642290444    
N     1.54508497187474        -4.75528258147577       -0.202394282512554    
N     2.12889645782536        -4.52413526233010        0.422848827045490E-01
N     2.67913397489498        -4.22163962751008        0.139377486369267    
N     3.18711994874345        -3.85256621387895       -0.754426401546905E-01
N     3.64484313710706        -3.42273552964344       -0.206894421197470E-01
N     4.04508497187474        -2.93892626146237       -0.140596409643853    
N     4.38153340021932        -2.40876837050858        0.101930248853483    
N     4.64888242944126        -1.84062276342339        0.151081204085443    
N     4.84291580564315        -1.24344943582428        0.106789350471774    
N     4.96057350657239       -0.626666167821523        0.142568079082217    
N     5.00000000000000       -0.122464679914735E-14   -0.886990189927902E-02
          50

N     4.96057350657239        0.626666167821521        0.769688456853716E-01
N     4.84291580564316         1.24344943582427        0.334287288514020E-01
N     4.64888242944126         1.84062276342339        0.118159811122300    
N     4.38153340021932         2.40876837050858        0.150256940514810    
N     4.04508497187474         2.93892626146237        0.106356888606433    
N     3.64484313710706         3.42273552964344        0.108169139078249    
N     3.18711994874345         3.85256621387895       -0.179675908864493    
N     2.67913397489498         4.22163962751008       -0.105620650474986E-01
N     2.12889645782536         4.52413526233010       -0.214843608885092E-01
N     1.54508497187474         4.75528258147577        0.970040364529470E-01
N    0.936906572928624         4.91143625364344        0.364568970491834E-01
N    0.313952597646568         4.99013364214136       -0.181433430454864    
N   -0.313952597646567         4.99013364214136        0.104838900737349    
N   -0.936906572928623         4.91143625364344        0.104838900737349    
N    -1.54508497187474         4.75528258147577       -0.181433430454864    
N    -2.12889645782536         4.52413526233010        0.364568970491834E-01
N    -2.67913397489498         4.22163962751007        0.970040364529470E-01
N    -3.18711994874345         3.85256621387895       -0.214843608885092E-01
N    -3.64484313710706         3.42273552964344       -0.105620650474986E-01
N    -4.04508497187474         2.93892626146237       -0.179675908864493    
N    -4.38153340021932         2.40876837050858        0.108169139078249    
N    -4.64888242944126         1.84062276342339        0.106356888606433    
N    -4.84291580564315         1.24344943582428        0.150256940514810    
N    -4.96057350657239        0.626666167821523        0.118159811122300    
N    -5.00000000000000        0.612323399573677E-15    0.334287288514020E-01
N    -4.96057350657239       -0.626666167821522        0.769688456853716E-01
N    -4.84291580564316        -1.24344943582427        0.334287288514020E-01
N    -4.64888242944126        -1.84062276342339        0.118159811122300    
N    -4.38153340021932        -2.40876837050858        0.150256940514810    
N    -4.04508497187474        -2.93892626146236        0.106356888606433    
N    -3.64484313710706        -3.42273552964344        0.108169139078249    
N    -3.18711994874345        -3.85256621387895       -0.179675908864493    
N    -2.67913397489498        -4.22163962751008       -0.105620650474986E-01
N    -2.12889645782536        -4.52413526233010       -0.214843608885092E-01
N    -1.54508497187474        -4.75528258147577        0.970040364529470E-01
N   -0.936906572928623        -4.91143625364344        0.364568970491834E-01
N   -0.313952597646566        -4.99013364214136       -0.181433430454864    
N    0.313952597646564        -4.99013364214136        0.104838900737349    
N    0.936906572928621        -4.91143625364344        0.104838900737349    
N     1.54508497187474        -4.75528258147577       -0.181433430454864    
N     2.12889645782536        -4.52413526233010        0.364568970491834E-01
N     2.67913397489498        -4.22163962751008        0.970040364529470E-01
N     3.18711994874345        -3.85256621387895       -0.214843608885092E-01
N     3.64484313710706        -3.42273552964344       -0.105620650474986E-01
N     4.04508497187474        -2.93892626146237       -0.179675908864493    
N     4.38153340021932        -2.40876837050858        0.108169139078249    
N     4.64888242944126        -1.84062276342339        0.106356888606433    
N     4.84291580564315        -1.24344943582428        0.150256940514810    
N     4.96057350657239       -0.626666167821523        0.118159811122300    
N     5.00000000000000       -0.122464679914735E-14    0.334287288514020E-01
          50

N     4.96057350657239        0.626666167821521        0.491900510584127E-01
N     4.84291580564316         1.24344943582427        0.808056180277031E-01
N     4.64888242944126         1.84062276342339        0.916670902904038E-01
N     4.38153340021932         2.40876837050858        0.190703881891990    
N     4.04508497187474         2.93892626146237        0.634005006750972E-01
N     3.64484313710706         3.42273552964344        0.102965292497569    
N     3.18711994874345         3.85256621387895       -0.200660684061627    
N     2.67913397489498         4.22163962751008       -0.751063132598995E-02
N     2.12889645782536         4.52413526233010        0.375684055205438E-01
N     1.54508497187474         4.75528258147577        0.475130703135173E-01
N    0.936906572928624         4.91143625364344        0.244200667403183E-01
N    0.313952597646568         4.99013364214136       -0.140498895794220    
N   -0.313952597646567         4.99013364214136        0.850312596954827E-01
N   -0.936906572928623         4.91143625364344        0.850312596954827E-01
N    -1.54508497187474         4.75528258147577       -0.140498895794220    
N    -2.12889645782536         4.52413526233010        0.244200667403183E-01
N    -2.67913397489498         4.22163962751007        0.475130703135173E-01
N    -3.18711994874345         3.85256621387895        0.375684055205438E-01
N    -3.64484313710706         3.42273552964344       -0.751063132598995E-02
N    -4.04508497187474         2.93892626146237       -0.200660684061627    
N    -4.38153340021932         2.40876837050858        0.102965292497569    
N    -4.64888242944126         1.84062276342339        0.634005006750972E-01
N    -4.84291580564315         1.24344943582428        0.190703881891990    
N    -4.96057350657239        0.626666167821523        0.916670902904038E-01
N    -5.00000000000000        0.612323399573677E-15    0.808056180277031E-01
N    -4.96057350657239       -0.626666167821522        0.491900510584127E-01
N    -4.84291580564316        -1.24344943582427        0.808056180277031E-01
N    -4.64888242944126        -1.84062276342339        0.916670902904038E-01
N    -4.38153340021932        -2.40876837050858        0.190703881891990    
N    -4.04508497187474        -2.93892626146236        0.634005006750972E-01
N    -3.64484313710706        -3.42273552964344        0.102965292497569    
N    -3.18711994874345        -3.85256621387895       -0.200660684061627    
N    -2.67913397489498        -4.22163962751008       -0.751063132598995E-02
N    -2.12889645782536        -4.52413526233010        0.375684055205438E-01
N    -1.54508497187474        -4.75528258147577        0.475130703135173E-01
N   -0.936906572928623        -4.91143625364344        0.244200667403183E-01
N   -0.313952597646566        -4.99013364214136       -0.140498895794220    
N    0.313952597646564        -4.99013364214136        0.850312596954827E-01
N    0.936906572928621        -4.91143625364344        0.850312596954827E-01
N     1.54508497187474        -4.75528258147577       -0.140498895794220    
N     2.12889645782536        -4.52413526233010        0.244200667403183E-01
N     2.67913397489498        -4.22163962751008        0.475130703135173E-01
N     3.18711994874345        -3.85256621387895        0.375684055205438E-01
N     3.64484313710706        -3.42273552964344       -0.751063132598995E-02
N     4.04508497187474        -2.93892626146237       -0.200660684061627    
N     4.38153340021932        -2.40876837050858        0.102965292497569    
N     4.64888242944126        -1.84062276342339        0.634005006750972E-01
N     4.84291580564315        -1.24344943582428        0.190703881891990    
N     4.96057350657239       -0.626666167821523        0.916670902904038E-01
N     5.00000000000000       -0.122464679914735E-14    0.808056180277031E-01
          50

N     4.96057350657239        0.626666167821521        0.239182335580869E-01
N     4.84291580564316         1.24344943582427        0.127377892277246    
N     4.64888242944126         1.84062276342339        0.686452325065883E-01
N     4.38153340021932         2.40876837050858        0.222191093713564    
N     4.04508497187474         2.93892626146237        0.269990886502123E-01
N     3.64484313710706         3.42273552964344        0.842129170028913E-01
N     3.18711994874345         3.85256621387895       -0.201971493466473    
N     2.67913397489498         4.22163962751008       -0.102815516460719E-01
N     2.12889645782536         4.52413526233010        0.952011721785036E-01
N     1.54508497187474         4.75528258147577       -0.331405400760005E-02
N    0.936906572928624         4.91143625364344        0.679522286300277E-02
N    0.313952597646568         4.99013364214136       -0.840988670770730E-01
N   -0.313952597646567         4.99013364214136        0.562842302261603E-01
N   -0.936906572928623         4.91143625364344        0.562842302261603E-01
N    -1.54508497187474         4.75528258147577       -0.840988670770730E-01
N    -2.12889645782536         4.52413526233010        0.679522286300277E-02
N    -2.67913397489498         4.22163962751007       -0.331405400760005E-02
N    -3.18711994874345         3.85256621387895        0.952011721785036E-01
N    -3.64484313710706         3.42273552964344       -0.102815516460719E-01
N    -4.04508497187474         2.93892626146237       -0.201971493466473    
N    -4.38153340021932         2.40876837050858        0.842129170028913E-01
N    -4.64888242944126         1.84062276342339        0.269990886502123E-01
N    -4.84291580564315         1.24344943582428        0.222191093713564    
N    -4.96057350657239        0.626666167821523        0.686452325065883E-01
N    -5.00000000000000        0.612323399573677E-15    0.127377892277246    
N    -4.96057350657239       -0.626666167821522        0.239182335580869E-01
N    -4.84291580564316        -1.24344943582427        0.127377892277246    
N    -4.64888242944126        -1.84062276342339        0.686452325065883E-01
N    -4.38153340021932        -2.40876837050858        0.222191093713564    
N    -4.04508497187474        -2.93892626146236        0.269990886502123E-01
N    -3.64484313710706        -3.42273552964344        0.842129170028913E-01
N    -3.18711994874345        -3.85256621387895       -0.201971493466473    
N    -2.67913397489498        -4.22163962751008       -0.102815516460719E-01
N    -2.12889645782536        -4.52413526233010        0.952011721785036E-01
N    -1.54508497187474        -4.75528258147577       -0.331405400760005E-02
N   -0.936906572928623        -4.91143625364344        0.679522286300277E-02
N   -0.313952597646566        -4.99013364214136       -0.840988670770730E-01
N    0.313952597646564        -4.99013364214136        0.562842302261603E-01
N    0.936906572928621        -4.91143625364344        0.562842302261603E-01
N     1.54508497187474        -4.75528258147577       -0.840988670770730E-01
N     2.12889645782536        -4.52413526233010        0.679522286300277E-02
N     2.67913397489498        -4.22163962751008       -0.331405400760005E-02
N     3.18711994874345        -3.85256621387895        0.952011721785036E-01
N     3.64484313710706        -3.42273552964344       -0.102815516460719E-01
N     4.04508497187474        -2.93892626146237       -0.201971493466473    
N     4.38153340021932        -2.40876837050858        0.842129170028913E-01
N     4.64888242944126        -1.84062276342339        0.269990886502123E-01
N     4.84291580564315        -1.24344943582428        0.222191093713564    
N     4.96057350657239       -0.626666167821523        0.686452325065883E-01
N     5.00000000000000       -0.122464679914735E-14    0.127377892277246    
          50

N     4.96057350657239        0.626666167821521        0.682528400788476E-02
N     4.84291580564316         1.24344943582427        0.167561058150132    
N     4.64888242944126         1.84062276342339        0.539904530484157E-01
N     4.38153340021932         2.40876837050858        0.239882955940080    
N     4.04508497187474         2.93892626146237        0.535198015931479E-03
N     3.64484313710706         3.42273552964344        0.519125957399780E-01
N     3.18711994874345         3.85256621387895       -0.184351221417327    
N     2.67913397489498         4.22163962751008       -0.164415825480252E-01
N     2.12889645782536         4.52413526233010        0.144731243062956    
N     1.54508497187474         4.75528258147577       -0.498654741596370E-01
N    0.936906572928624         4.91143625364344       -0.147979105190477E-01
N    0.313952597646568         4.99013364214136       -0.185411982184682E-01
N   -0.313952597646567         4.99013364214136        0.219712409010630E-01
N   -0.936906572928623         4.91143625364344        0.219712409010630E-01
N    -1.54508497187474         4.75528258147577       -0.185411982184682E-01
N    -2.12889645782536         4.52413526233010       -0.147979105190477E-01
N    -2.67913397489498         4.22163962751007       -0.498654741596370E-01
N    -3.18711994874345         3.85256621387895        0.144731243062956    
N    -3.64484313710706         3.42273552964344       -0.164415825480252E-01
N    -4.04508497187474         2.93892626146237       -0.184351221417327    
N    -4.38153340021932         2.40876837050858        0.519125957399780E-01
N    -4.64888242944126         1.84062276342339        0.535198015931479E-03
N    -4.84291580564315         1.24344943582428        0.239882955940080    
N    -4.96057350657239        0.626666167821523        0.539904530484157E-01
N    -5.00000000000000        0.612323399573677E-15    0.167561058150132    
N    -4.96057350657239       -0.626666167821522        0.682528400788476E-02
N    -4.84291580564316        -1.24344943582427        0.167561058150132    
N    -4.64888242944126        -1.84062276342339        0.539904530484157E-01
N    -4.38153340021932        -2.40876837050858        0.239882955940080    
N    -4.04508497187474        -2.93892626146236        0.535198015931479E-03
N    -3.64484313710706        -3.42273552964344        0.519125957399780E-01
N    -3.18711994874345        -3.85256621387895       -0.184351221417327    
N    -2.67913397489498        -4.22163962751008       -0.164415825480252E-01
N    -2.12889645782536        -4.52413526233010        0.144731243062956    
N    -1.54508497187474        -4.75528258147577       -0.498654741596370E-01
N   -0.936906572928623        -4.91143625364344       -0.147979105190477E-01
N   -0.313952597646566        -4.99013364214136       -0.185411982184682E-01
N    0.313952597646564        -4.99013364214136        0.219712409010630E-01
N    0.936906572928621        -4.91143625364344        0.219712409010630E-01
N     1.54508497187474        -4.75528258147577       -0.185411982184682E-01
N     2.12889645782536        -4.52413526233010       -0.147979105190477E-01
N     2.67913397489498        -4.22163962751008       -0.498654741596370E-01
N     3.18711994874345        -3.85256621387895        0.144731243062956    
N     3.64484313710706        -3.42273552964344       -0.164415825480252E-01
N     4.04508497187474        -2.93892626146237       -0.184351221417327    
N     4.38153340021932        -2.40876837050858        0.519125957399780E-01
N     4.64888242944126        -1.84062276342339        0.535198015931479E-03
N     4.84291580564315        -1.24344943582428        0.239882955940080    
N     4.96057350657239       -0.626666167821523        0.539904530484157E-01
N     5.00000000000000       -0.122464679914735E-14    0.167561058150132    
          50

N     4.96057350657239        0.626666167821521        0.243315887940167E-02
N     4.84291580564316         1.24344943582427        0.196927052970181    
N     4.64888242944126         1.84062276342339        0.511419907559276E-01
N     4.38153340021932         2.40876837050858        0.240756327007339    
N     4.04508497187474         2.93892626146237       -0.144713250426137E-01
N     3.64484313710706         3.42273552964344        0.827510848349539E-02
N     3.18711994874345         3.85256621387895       -0.150710414169065    
N     2.67913397489498         4.22163962751008       -0.228628873259473E-01
N     2.12889645782536         4.52413526233010        0.180154655995757    
N     1.54508497187474         4.75528258147577       -0.873436469890703E-01
N    0.936906572928624         4.91143625364344       -0.378969112626805E-01
N    0.313952597646568         4.99013364214136        0.487644584472941E-01
N   -0.313952597646567         4.99013364214136       -0.139509883103241E-01
N   -0.936906572928623         4.91143625364344       -0.139509883103241E-01
N    -1.54508497187474         4.75528258147577        0.487644584472941E-01
N    -2.12889645782536         4.52413526233010       -0.378969112626805E-01
N    -2.67913397489498         4.22163962751007       -0.873436469890703E-01
N    -3.18711994874345         3.85256621387895        0.180154655995757    
N    -3.64484313710706         3.42273552964344       -0.228628873259473E-01
N    -4.04508497187474         2.93892626146237       -0.150710414169065    
N    -4.38153340021932         2.40876837050858        0.827510848349539E-02
N    -4.64888242944126         1.84062276342339       -0.144713250426137E-01
N    -4.84291580564315         1.24344943582428        0.240756327007339    
N    -4.96057350657239        0.626666167821523        0.511419907559276E-01
N    -5.00000000000000        0.612323399573677E-15    0.196927052970181    
N    -4.96057350657239       -0.626666167821522        0.243315887940167E-02
N    -4.84291580564316        -1.24344943582427        0.196927052970181    
N    -4.64888242944126        -1.84062276342339        0.511419907559276E-01
N    -4.38153340021932        -2.40876837050858        0.240756327007339    
N    -4.04508497187474        -2.93892626146236       -0.144713250426137E-01
N    -3.64484313710706        -3.42273552964344        0.827510848349539E-02
N    -3.18711994874345        -3.85256621387895       -0.150710414169065    
N    -2.67913397489498        -4.22163962751008       -0.228628873259473E-01
N    -2.12889645782536        -4.52413526233010        0.180154655995757    
N    -1.54508497187474        -4.75528258147577       -0.873436469890703E-01
N   -0.936906572928623        -4.91143625364344       -0.378969112626805E-01
N   -0.313952597646566        -4.99013364214136        0.487644584472941E-01
N    0.313952597646564        -4.99013364214136       -0.139509883103241E-01
N    0.936906572928621        -4.91143625364344       -0.139509883103241E-01
N     1.54508497187474        -4.75528258147577        0.487644584472941E-01
N     2.12889645782536        -4.52413526233010       -0.378969112626805E-01
N     2.67913397489498        -4.22163962751008       -0.873436469890703E-01
N     3.18711994874345        -3.85256621387895        0.180154655995757    
N     3.64484313710706        -3.42273552964344       -0.228628873259473E-01
N     4.04508497187474        -2.93892626146237       -0.150710414169065    
N     4.38153340021932        -2.40876837050858        0.827510848349539E-02
N     4.64888242944126        -1.84062276342339       -0.144713250426137E-01
N     4.84291580564315        -1.24344943582428        0.240756327007339    
N     4.96057350657239       -0.626666167821523        0.511419907559276E-01
N     5.00000000000000       -0.122464679914735E-14    0.196927052970181    
          50

N     4.96057350657239        0.626666167821521        0.134070887794790E-01
N     4.84291580564316         1.24344943582427        0.212868201395201    
N     4.64888242944126         1.84062276342339        0.615164128890465E-01
N     4.38153340021932         2.40876837050858        0.224035426092629    
N     4.04508497187474         2.93892626146237       -0.185157045138153E-01
N     3.64484313710706         3.42273552964344       -0.425085465560011E-01
N     3.18711994874345         3.85256621387895       -0.105686635528683    
N     2.67913397489498         4.22163962751008       -0.263216937107541E-01
N     2.12889645782536         4.52413526233010        0.196934466928298    
N     1.54508497187474         4.75528258147577       -0.112285679329537    
N    0.936906572928624         4.91143625364344       -0.594950594332598E-01
N    0.313952597646568         4.99013364214136        0.110148037664955    
N   -0.313952597646567         4.99013364214136       -0.473927702878231E-01
N   -0.936906572928623         4.91143625364344       -0.473927702878231E-01
N    -1.54508497187474         4.75528258147577        0.110148037664955    
N    -2.12889645782536         4.52413526233010       -0.594950594332598E-01
N    -2.67913397489498         4.22163962751007       -0.112285679329537    
N    -3.18711994874345         3.85256621387895        0.196934466928298    
N    -3.64484313710706         3.42273552964344       -0.263216937107541E-01
N    -4.04508497187474         2.93892626146237       -0.105686635528683    
N    -4.38153340021932         2.40876837050858       -0.425085465560011E-01
N    -4.64888242944126         1.84062276342339       -0.185157045138153E-01
N    -4.84291580564315         1.24344943582428        0.224035426092629    
N    -4.96057350657239        0.626666167821523        0.615164128890465E-01
N    -5.00000000000000        0.612323399573677E-15    0.212868201395201    
N    -4.96057350657239       -0.626666167821522        0.134070887794790E-01
N    -4.84291580564316        -1.24344943582427        0.212868201395201    
N    -4.64888242944126        -1.84062276342339        0.615164128890465E-01
N    -4.38153340021932        -2.40876837050858        0.224035426092629    
N    -4.04508497187474        -2.93892626146236       -0.185157045138153E-01
N    -3.64484313710706        -3.42273552964344       -0.425085465560011E-01
N    -3.18711994874345        -3.85256621387895       -0.105686635528683    
N    -2.67913397489498        -4.22163962751008       -0.263216937107541E-01
N    -2.12889645782536        -4.52413526233010        0.196934466928298    
N    -1.54508497187474        -4.75528258147577       -0.112285679329537    
N   -0.936906572928623        -4.91143625364344       -0.594950594332598E-01
N   -0.313952597646566        -4.99013364214136        0.110148037664955    
N    0.313952597646564        -4.99013364214136       -0.473927702878231E-01
N    0.936906572928621        -4.91143625364344       -0.473927702878231E-01
N     1.54508497187474        -4.75528258147577        0.110148037664955    
N     2.12889645782536        -4.52413526233010       -0.594950594332598E-01
N     2.67913397489498        -4.22163962751008       -0.112285679329537    
N     3.18711994874345        -3.85256621387895        0.196934466928298    
N     3.64484313710706        -3.42273552964344       -0.263216937107541E-01
N     4.04508497187474        -2.93892626146237       -0.105686635528683    
N     4.38153340021932        -2.40876837050858       -0.425085465560011E-01
N     4.64888242944126        -1.84062276342339       -0.185157045138153E-01
N     4.84291580564315        -1.24344943582428        0.224035426092629    
N     4.96057350657239       -0.626666167821523        0.615164128890465E-01
N     5.00000000000000       -0.122464679914735E-14    0.212868201395201    
          50

N     4.96057350657239        0.626666167821521        0.401390108375303E-01
N     4.84291580564316         1.24344943582427        0.214964410981948    
N     4.64888242944126         1.84062276342339        0.842621625586343E-01
N     4.38153340021932         2.40876837050858        0.191289851580333    
N     4.04508497187474         2.93892626146237       -0.139346406746388E-01
N     3.64484313710706         3.42273552964344       -0.948013590678652E-01
N     3.18711994874345         3.85256621387895       -0.549851645133724E-01
N     2.67913397489498         4.22163962751008       -0.241147268608514E-01
N     2.12889645782536         4.52413526233010        0.192623793833134    
N     1.54508497187474         4.75528258147577       -0.122898586537653    
N    0.936906572928624         4.91143625364344       -0.764455922911428E-01
N    0.313952597646568         4.99013364214136        0.158567644838333    
N   -0.313952597646567         4.99013364214136       -0.745972992656300E-01
N   -0.936906572928623         4.91143625364344       -0.745972992656300E-01
N    -1.54508497187474         4.75528258147577        0.158567644838333    
N    -2.12889645782536         4.52413526233010       -0.764455922911428E-01
N    -2.67913397489498         4.22163962751007       -0.122898586537653    
N    -3.18711994874345         3.85256621387895        0.192623793833134    
N    -3.64484313710706         3.42273552964344       -0.241147268608514E-01
N    -4.04508497187474         2.93892626146237       -0.549851645133724E-01
N    -4.38153340021932         2.40876837050858       -0.948013590678652E-01
N    -4.64888242944126         1.84062276342339       -0.139346406746388E-01
N    -4.84291580564315         1.24344943582428        0.191289851580333    
N    -4.96057350657239        0.626666167821523        0.842621625586343E-01
N    -5.00000000000000        0.612323399573677E-15    0.214964410981948    
N    -4.96057350657239       -0.626666167821522        0.401390108375303E-01
N    -4.84291580564316        -1.24344943582427        0.214964410981948    
N    -4.64888242944126        -1.84062276342339        0.842621625586343E-01
N    -4.38153340021932        -2.40876837050858        0.191289851580333    
N    -4.04508497187474        -2.93892626146236       -0.139346406746388E-01
N    -3.64484313710706        -3.42273552964344       -0.948013590678652E-01
N    -3.18711994874345        -3.85256621387895       -0.549851645133724E-01
N    -2.67913397489498        -4.22163962751008       -0.241147268608514E-01
N    -2.12889645782536        -4.52413526233010        0.192623793833134    
N    -1.54508497187474        -4.75528258147577       -0.122898586537653    
N   -0.936906572928623        -4.91143625364344       -0.764455922911428E-01
N   -0.313952597646566        -4.99013364214136        0.158567644838333    
N    0.313952597646564        -4.99013364214136       -0.745972992656300E-01
N    0.936906572928621        -4.91143625364344       -0.745972992656300E-01
N     1.54508497187474        -4.75528258147577        0.158567644838333    
N     2.12889645782536        -4.52413526233010       -0.764455922911428E-01
N     2.67913397489498        -4.22163962751008       -0.122898586537653    
N     3.18711994874345        -3.85256621387895        0.192623793833134    
N     3.64484313710706        -3.42273552964344       -0.241147268608514E-01
N     4.04508497187474        -2.93892626146237       -0.549851645133724E-01
N     4.38153340021932        -2.40876837050858       -0.948013590678652E-01
N     4.64888242944126        -1.84062276342339       -0.139346406746388E-01
N     4.84291580564315        -1.24344943582428        0.191289851580333    
N     4.96057350657239       -0.626666167821523        0.842621625586343E-01
N     5.00000000000000       -0.122464679914735E-14    0.214964410981948    
          50

N     4.96057350657239        0.626666167821521        0.806831396485434E-01
N     4.84291580564316         1.24344943582427        0.204998455597674    
N     4.64888242944126         1.84062276342339        0.116372118960333    
N     4.38153340021932         2.40876837050858        0.146185114055650    
N     4.04508497187474         2.93892626146237       -0.443766204181433E-02
N     3.64484313710706         3.42273552964344       -0.142283624737285    
N     3.18711994874345         3.85256621387895       -0.459856374085016E-02
N     2.67913397489498         4.22163962751008       -0.145940956882474E-01
N     2.12889645782536         4.52413526233010        0.167236744093425    
N     1.54508497187474         4.75528258147577       -0.119174253628443    
N    0.936906572928624         4.91143625364344       -0.859179355815955E-01
N    0.313952597646568         4.99013364214136        0.188440510629495    
N   -0.313952597646567         4.99013364214136       -0.925683777426197E-01
N   -0.936906572928623         4.91143625364344       -0.925683777426197E-01
N    -1.54508497187474         4.75528258147577        0.188440510629495    
N    -2.12889645782536         4.52413526233010       -0.859179355815955E-01
N    -2.67913397489498         4.22163962751007       -0.119174253628443    
N    -3.18711994874345         3.85256621387895        0.167236744093425    
N    -3.64484313710706         3.42273552964344       -0.145940956882474E-01
N    -4.04508497187474         2.93892626146237       -0.459856374085016E-02
N    -4.38153340021932         2.40876837050858       -0.142283624737285    
N    -4.64888242944126         1.84062276342339       -0.443766204181433E-02
N    -4.84291580564315         1.24344943582428        0.146185114055650    
N    -4.96057350657239        0.626666167821523        0.116372118960333    
N    -5.00000000000000        0.612323399573677E-15    0.204998455597674    
N    -4.96057350657239       -0.626666167821522        0.806831396485434E-01
N    -4.84291580564316        -1.24344943582427        0.204998455597674    
N    -4.64888242944126        -1.84062276342339        0.116372118960333    
N    -4.38153340021932        -2.40876837050858        0.146185114055650    
N    -4.04508497187474        -2.93892626146236       -0.443766204181433E-02
N    -3.64484313710706        -3.42273552964344       -0.142283624737285    
N    -3.18711994874345        -3.85256621387895       -0.459856374085016E-02
N    -2.67913397489498        -4.22163962751008       -0.145940956882474E-01
N    -2.12889645782536        -4.52413526233010        0.167236744093425    
N    -1.54508497187474        -4.75528258147577       -0.119174253628443    
N   -0.936906572928623        -4.91143625364344       -0.859179355815955E-01
N   -0.313952597646566        -4.99013364214136        0.188440510629495    
N    0.313952597646564        -4.99013364214136       -0.925683777426197E-01
N    0.936906572928621        -4.91143625364344       -0.925683777426197E-01
N     1.54508497187474        -4.75528258147577        0.188440510629495    
N     2.12889645782536        -4.52413526233010       -0.859179355815955E-01
N     2.67913397489498        -4.22163962751008       -0.119174253628443    
N     3.18711994874345        -3.85256621387895        0.167236744093425    
N     3.64484313710706        -3.42273552964344       -0.145940956882474E-01
N     4.04508497187474        -2.93892626146237       -0.459856374085016E-02
N     4.38153340021932        -2.40876837050858       -0.142283624737285    
N     4.64888242944126        -1.84062276342339       -0.443766204181433E-02
N     4.84291580564315        -1.24344943582428        0.146185114055650    
N     4.96057350657239       -0.626666167821523        0.116372118960333    
N     5.00000000000000       -0.122464679914735E-14    0.204998455597674    
          50

N     4.96057350657239        0.626666167821521        0.131050015921961    
N     4.84291580564316         1.24344943582427        0.186620005010024    
N     4.64888242944126         1.84062276342339        0.153136065507509    
N     4.38153340021932         2.40876837050858        0.939282835794180E-01
N     4.04508497187474         2.93892626146237        0.557960233505723E-02
N     3.64484313710706         3.42273552964344       -0.178835720933477    
N     3.18711994874345         3.85256621387895        0.399819402333174E-01
N     2.67913397489498         4.22163962751008        0.246705956651848E-02
N     2.12889645782536         4.52413526233010        0.123312240480005    
N     1.54508497187474         4.75528258147577       -0.102778321345034    
N    0.936906572928624         4.91143625364344       -0.858415238970906E-01
N    0.313952597646568         4.99013364214136        0.196315541224592    
N   -0.313952597646567         4.99013364214136       -0.994101797218252E-01
N   -0.936906572928623         4.91143625364344       -0.994101797218252E-01
N    -1.54508497187474         4.75528258147577        0.196315541224592    
N    -2.12889645782536         4.52413526233010       -0.858415238970906E-01
N    -2.67913397489498         4.22163962751007       -0.102778321345034    
N    -3.18711994874345         3.85256621387895        0.123312240480005    
N    -3.64484313710706         3.42273552964344        0.246705956651848E-02
N    -4.04508497187474         2.93892626146237        0.399819402333174E-01
N    -4.38153340021932         2.40876837050858       -0.178835720933477    
N    -4.64888242944126         1.84062276342339        0.557960233505723E-02
N    -4.84291580564315         1.24344943582428        0.939282835794180E-01
N    -4.96057350657239        0.626666167821523        0.153136065507509    
N    -5.00000000000000        0.612323399573677E-15    0.186620005010024    
N    -4.96057350657239       -0.626666167821522        0.131050015921961    
N    -4.84291580564316        -1.24344943582427        0.186620005010024    
N    -4.64888242944126        -1.84062276342339        0.153136065507509    
N    -4.38153340021932        -2.40876837050858        0.939282835794180E-01
N    -4.04508497187474        -2.93892626146236        0.557960233505723E-02
N    -3.64484313710706        -3.42273552964344       -0.178835720933477    
N    -3.18711994874345        -3.85256621387895        0.399819402333174E-01
N    -2.67913397489498        -4.22163962751008        0.246705956651848E-02
N    -2.12889645782536        -4.52413526233010        0.123312240480005    
N    -1.54508497187474        -4.75528258147577       -0.102778321345034    
N   -0.936906572928623        -4.91143625364344       -0.858415238970906E-01
N   -0.313952597646566        -4.99013364214136        0.196315541224592    
N    0.313952597646564        -4.99013364214136       -0.994101797218252E-01
N    0.936906572928621        -4.91143625364344       -0.994101797218252E-01
N     1.54508497187474        -4.75528258147577        0.196315541224592    
N     2.12889645782536        -4.52413526233010       -0.858415238970906E-01
N     2.67913397489498        -4.22163962751008       -0.102778321345034    
N     3.18711994874345        -3.85256621387895        0.123312240480005    
N     3.64484313710706        -3.42273552964344        0.246705956651848E-02
N     4.04508497187474        -2.93892626146237        0.399819402333174E-01
N     4.38153340021932        -2.40876837050858       -0.178835720933477    
N     4.64888242944126        -1.84062276342339        0.557960233505723E-02
N     4.84291580564315        -1.24344943582428        0.939282835794180E-01
N     4.96057350657239       -0.626666167821523        0.153136065507509    
N     5.00000000000000       -0.122464679914735E-14    0.186620005010024    
          50

N     4.96057350657239        0.626666167821521        0.185809341591566    
N     4.84291580564316         1.24344943582427        0.164714357653349    
N     4.64888242944126         1.84062276342339        0.188862217843262    
N     4.38153340021932         2.40876837050858        0.404974602220581E-01
N     4.04508497187474         2.93892626146237        0.118292805177043E-01
N     3.64484313710706         3.42273552964344       -0.199412311660227    
N     3.18711994874345         3.85256621387895        0.744516279337792E-01
N     2.67913397489498         4.22163962751008        0.257406625228545E-01
N     2.12889645782536         4.52413526233010        0.656556897712920E-01
N     1.54508497187474         4.75528258147577       -0.767367552281664E-01
N    0.936906572928624         4.91143625364344       -0.752711638924159E-01
N    0.313952597646568         4.99013364214136        0.181303238272211    
N   -0.313952597646567         4.99013364214136       -0.945389747514889E-01
N   -0.936906572928623         4.91143625364344       -0.945389747514889E-01
N    -1.54508497187474         4.75528258147577        0.181303238272211    
N    -2.12889645782536         4.52413526233010       -0.752711638924159E-01
N    -2.67913397489498         4.22163962751007       -0.767367552281664E-01
N    -3.18711994874345         3.85256621387895        0.656556897712920E-01
N    -3.64484313710706         3.42273552964344        0.257406625228545E-01
N    -4.04508497187474         2.93892626146237        0.744516279337792E-01
N    -4.38153340021932         2.40876837050858       -0.199412311660227    
N    -4.64888242944126         1.84062276342339        0.118292805177043E-01
N    -4.84291580564315         1.24344943582428        0.404974602220581E-01
N    -4.96057350657239        0.626666167821523        0.188862217843262    
N    -5.00000000000000        0.612323399573677E-15    0.164714357653349    
N    -4.96057350657239       -0.626666167821522        0.185809341591566    
N    -4.84291580564316        -1.24344943582427        0.164714357653349    
N    -4.64888242944126        -1.84062276342339        0.188862217843262    
N    -4.38153340021932        -2.40876837050858        0.404974602220581E-01
N    -4.04508497187474        -2.93892626146236        0.118292805177043E-01
N    -3.64484313710706        -3.42273552964344       -0.199412311660227    
N    -3.18711994874345        -3.85256621387895        0.744516279337792E-01
N    -2.67913397489498        -4.22163962751008        0.257406625228545E-01
N    -2.12889645782536        -4.52413526233010        0.656556897712920E-01
N    -1.54508497187474        -4.75528258147577       -0.767367552281664E-01
N   -0.936906572928623        -4.91143625364344       -0.752711638924159E-01
N   -0.313952597646566        -4.99013364214136        0.181303238272211    
N    0.313952597646564        -4.99013364214136       -0.945389747514889E-01
N    0.936906572928621        -4.91143625364344       -0.945389747514889E-01
N     1.54508497187474        -4.75528258147577        0.181303238272211    
N     2.12889645782536        -4.52413526233010       -0.752711638924159E-01
N     2.67913397489498        -4.22163962751008       -0.767367552281664E-01
N     3.18711994874345        -3.85256621387895        0.656556897712920E-01
N     3.64484313710706        -3.42273552964344        0.257406625228545E-01
N     4.04508497187474        -2.93892626146237        0.744516279337792E-01
N     4.38153340021932        -2.40876837050858       -0.199412311660227    
N     4.64888242944126        -1.84062276342339        0.118292805177043E-01
N     4.84291580564315        -1.24344943582428        0.404974602220581E-01
N     4.96057350657239       -0.626666167821523        0.188862217843262    
N     5.00000000000000       -0.122464679914735E-14    0.164714357653349    
          50

N     4.96057350657239        0.626666167821521        0.238904213928093    
N     4.84291580564316         1.24344943582427        0.144577961742795    
N     4.64888242944126         1.84062276342339        0.217755520662161    
N     4.38153340021932         2.40876837050858       -0.822429113251146E-02
N     4.04508497187474         2.93892626146237        0.109046382947724E-01
N     3.64484313710706         3.42273552964344       -0.200780484924029    
N     3.18711994874345         3.85256621387895        0.961800227079335E-01
N     2.67913397489498         4.22163962751008        0.524689173214601E-01
N     2.12889645782536         4.52413526233010        0.786082774654361E-03
N     1.54508497187474         4.75528258147577       -0.449695000930568E-01
N    0.936906572928624         4.91143625364344       -0.546157249696630E-01
N    0.313952597646568         4.99013364214136        0.145206173550104    
N   -0.313952597646567         4.99013364214136       -0.787414228986723E-01
N   -0.936906572928623         4.91143625364344       -0.787414228986723E-01
N    -1.54508497187474         4.75528258147577        0.145206173550104    
N    -2.12889645782536         4.52413526233010       -0.546157249696630E-01
N    -2.67913397489498         4.22163962751007       -0.449695000930568E-01
N    -3.18711994874345         3.85256621387895        0.786082774654361E-03
N    -3.64484313710706         3.42273552964344        0.524689173214601E-01
N    -4.04508497187474         2.93892626146237        0.961800227079335E-01
N    -4.38153340021932         2.40876837050858       -0.200780484924029    
N    -4.64888242944126         1.84062276342339        0.109046382947724E-01
N    -4.84291580564315         1.24344943582428       -0.822429113251146E-02
N    -4.96057350657239        0.626666167821523        0.217755520662161    
N    -5.00000000000000        0.612323399573677E-15    0.144577961742795    
N    -4.96057350657239       -0.626666167821522        0.238904213928093    
N    -4.84291580564316        -1.24344943582427        0.144577961742795    
N    -4.64888242944126        -1.84062276342339        0.217755520662161    
N    -4.38153340021932        -2.40876837050858       -0.822429113251146E-02
N    -4.04508497187474        -2.93892626146236        0.109046382947724E-01
N    -3.64484313710706        -3.42273552964344       -0.200780484924029    
N    -3.18711994874345        -3.85256621387895        0.961800227079335E-01
N    -2.67913397489498        -4.22163962751008        0.524689173214601E-01
N    -2.12889645782536        -4.52413526233010        0.786082774654361E-03
N    -1.54508497187474        -4.75528258147577       -0.449695000930568E-01
N   -0.936906572928623        -4.91143625364344       -0.546157249696630E-01
N   -0.313952597646566        -4.99013364214136        0.145206173550104    
N    0.313952597646564        -4.99013364214136       -0.787414228986723E-01
N    0.936906572928621        -4.91143625364344       -0.787414228986723E-01
N     1.54508497187474        -4.75528258147577        0.145206173550104    
N     2.12889645782536        -4.52413526233010       -0.546157249696630E-01
N     2.67913397489498        -4.22163962751008       -0.449695000930568E-01
N     3.18711994874345        -3.85256621387895        0.786082774654361E-03
N     3.64484313710706        -3.42273552964344        0.524689173214601E-01
N     4.04508497187474        -2.93892626146237        0.961800227079335E-01
N     4.38153340021932        -2.40876837050858       -0.200780484924029    
N     4.64888242944126        -1.84062276342339        0.109046382947724E-01
N     4.84291580564315        -1.24344943582428       -0.822429113251146E-02
N     4.96057350657239       -0.626666167821523        0.217755520662161    
N     5.00000000000000       -0.122464679914735E-14    0.144577961742795    
          50

N     4.96057350657239        0.626666167821521        0.284547417217279    
N     4.84291580564316         1.24344943582427        0.131032606121313    
N     4.64888242944126         1.84062276342339        0.234816634206187    
N     4.38153340021932         2.40876837050858       -0.472769621452082E-01
N     4.04508497187474         2.93892626146237        0.908592053681374E-03
N     3.64484313710706         3.42273552964344       -0.182013681948173    
N     3.18711994874345         3.85256621387895        0.104438398319665    
N     2.67913397489498         4.22163962751008        0.788361213125953E-01
N     2.12889645782536         4.52413526233010       -0.638442998957906E-01
N     1.54508497187474         4.75528258147577       -0.117389710914909E-01
N    0.936906572928624         4.91143625364344       -0.256885690617960E-01
N    0.313952597646568         4.99013364214136        0.923284110726916E-01
N   -0.313952597646567         4.99013364214136       -0.540719875523187E-01
N   -0.936906572928623         4.91143625364344       -0.540719875523187E-01
N    -1.54508497187474         4.75528258147577        0.923284110726916E-01
N    -2.12889645782536         4.52413526233010       -0.256885690617960E-01
N    -2.67913397489498         4.22163962751007       -0.117389710914909E-01
N    -3.18711994874345         3.85256621387895       -0.638442998957906E-01
N    -3.64484313710706         3.42273552964344        0.788361213125953E-01
N    -4.04508497187474         2.93892626146237        0.104438398319665    
N    -4.38153340021932         2.40876837050858       -0.182013681948173    
N    -4.64888242944126         1.84062276342339        0.908592053681374E-03
N    -4.84291580564315         1.24344943582428       -0.472769621452082E-01
N    -4.96057350657239        0.626666167821523        0.234816634206187    
N    -5.00000000000000        0.612323399573677E-15    0.131032606121313    
N    -4.96057350657239       -0.626666167821522        0.284547417217279    
N    -4.84291580564316        -1.24344943582427        0.131032606121313    
N    -4.64888242944126        -1.84062276342339        0.234816634206187    
N    -4.38153340021932        -2.40876837050858       -0.472769621452082E-01
N    -4.04508497187474        -2.93892626146236        0.908592053681374E-03
N    -3.64484313710706        -3.42273552964344       -0.182013681948173    
N    -3.18711994874345        -3.85256621387895        0.104438398319665    
N    -2.67913397489498        -4.22163962751008        0.788361213125953E-01
N    -2.12889645782536        -4.52413526233010       -0.638442998957906E-01
N    -1.54508497187474        -4.75528258147577       -0.117389710914909E-01
N   -0.936906572928623        -4.91143625364344       -0.256885690617960E-01
N   -0.313952597646566        -4.99013364214136        0.923284110726916E-01
N    0.313952597646564        -4.99013364214136       -0.540719875523187E-01
N    0.936906572928621        -4.91143625364344       -0.540719875523187E-01
N     1.54508497187474        -4.75528258147577        0.923284110726916E-01
N     2.12889645782536        -4.52413526233010       -0.256885690617960E-01
N     2.67913397489498        -4.22163962751008       -0.117389710914909E-01
N     3.18711994874345        -3.85256621387895       -0.638442998957906E-01
N     3.64484313710706        -3.42273552964344        0.788361213125953E-01
N     4.04508497187474        -2.93892626146237        0.104438398319665    
N     4.38153340021932        -2.40876837050858       -0.182013681948173    
N     4.64888242944126        -1.84062276342339        0.908592053681374E-03
N     4.84291580564315        -1.24344943582428       -0.472769621452082E-01
N     4.96057350657239       -0.626666167821523        0.234816634206187    
N     5.00000000000000       -0.122464679914735E-14    0.131032606121313    
          50

N     4.96057350657239        0.626666167821521        0.318059095474323    
N     4.84291580564316         1.24344943582427        0.127619072061363    
N     4.64888242944126         1.84062276342339        0.236622965228555    
N     4.38153340021932         2.40876837050858       -0.732878892480392E-01
N     4.04508497187474         2.93892626146237       -0.181644541232405E-01
N     3.64484313710706         3.42273552964344       -0.144668571060893    
N     3.18711994874345         3.85256621387895        0.100344199004778    
N     2.67913397489498         4.22163962751008        0.100535814491524    
N     2.12889645782536         4.52413526233010       -0.120759308034210    
N     1.54508497187474         4.75528258147577        0.189101730929472E-01
N    0.936906572928624         4.91143625364344        0.843843085030582E-02
N    0.313952597646568         4.99013364214136        0.289811160483017E-01
N   -0.313952597646567         4.99013364214136       -0.236010960485598E-01
N   -0.936906572928623         4.91143625364344       -0.236010960485598E-01
N    -1.54508497187474         4.75528258147577        0.289811160483017E-01
N    -2.12889645782536         4.52413526233010        0.843843085030582E-02
N    -2.67913397489498         4.22163962751007        0.189101730929472E-01
N    -3.18711994874345         3.85256621387895       -0.120759308034210    
N    -3.64484313710706         3.42273552964344        0.100535814491524    
N    -4.04508497187474         2.93892626146237        0.100344199004778    
N    -4.38153340021932         2.40876837050858       -0.144668571060893    
N    -4.64888242944126         1.84062276342339       -0.181644541232405E-01
N    -4.84291580564315         1.24344943582428       -0.732878892480392E-01
N    -4.96057350657239        0.626666167821523        0.236622965228555    
N    -5.00000000000000        0.612323399573677E-15    0.127619072061363    
N    -4.96057350657239       -0.626666167821522        0.318059095474323    
N    -4.84291580564316        -1.24344943582427        0.127619072061363    
N    -4.64888242944126        -1.84062276342339        0.236622965228555    
N    -4.38153340021932        -2.40876837050858       -0.732878892480392E-01
N    -4.04508497187474        -2.93892626146236       -0.181644541232405E-01
N    -3.64484313710706        -3.42273552964344       -0.144668571060893    
N    -3.18711994874345        -3.85256621387895        0.100344199004778    
N    -2.67913397489498        -4.22163962751008        0.100535814491524    
N    -2.12889645782536        -4.52413526233010       -0.120759308034210    
N    -1.54508497187474        -4.75528258147577        0.189101730929472E-01
N   -0.936906572928623        -4.91143625364344        0.843843085030582E-02
N   -0.313952597646566        -4.99013364214136        0.289811160483017E-01
N    0.313952597646564        -4.99013364214136       -0.236010960485598E-01
N    0.936906572928621        -4.91143625364344       -0.236010960485598E-01
N     1.54508497187474        -4.75528258147577        0.289811160483017E-01
N     2.12889645782536        -4.52413526233010        0.843843085030582E-02
N     2.67913397489498        -4.22163962751008        0.189101730929472E-01
N     3.18711994874345        -3.85256621387895       -0.120759308034210    
N     3.64484313710706        -3.42273552964344        0.100535814491524    
N     4.04508497187474        -2.93892626146237        0.100344199004778    
N     4.38153340021932        -2.40876837050858       -0.144668571060893    
N     4.64888242944126        -1.84062276342339       -0.181644541232405E-01
N     4.84291580564315        -1.24344943582428       -0.732878892480392E-01
N     4.96057350657239       -0.626666167821523        0.236622965228555    
N     5.00000000000000       -0.122464679914735E-14    0.127619072061363    
          50

N     4.96057350657239        0.626666167821521        0.336516013889591    
N     4.84291580564316         1.24344943582427        0.135997806480762    
N     4.64888242944126         1.84062276342339        0.221871998110203    
N     4.38153340021932         2.40876837050858       -0.848739270527063E-01
N     4.04508497187474         2.93892626146237       -0.443567941765226E-01
N     3.64484313710706         3.42273552964344       -0.926179929406946E-01
N     3.18711994874345         3.85256621387895        0.865421082270399E-01
N     2.67913397489498         4.22163962751008        0.113450308330337    
N     2.12889645782536         4.52413526233010       -0.163380930128489    
N     1.54508497187474         4.75528258147577        0.436454802151229E-01
N    0.936906572928624         4.91143625364344        0.437682328952741E-01
N    0.313952597646568         4.99013364214136       -0.372606829054364E-01
N   -0.313952597646567         4.99013364214136        0.895638600030818E-02
N   -0.936906572928623         4.91143625364344        0.895638600030818E-02
N    -1.54508497187474         4.75528258147577       -0.372606829054364E-01
N    -2.12889645782536         4.52413526233010        0.437682328952741E-01
N    -2.67913397489498         4.22163962751007        0.436454802151229E-01
N    -3.18711994874345         3.85256621387895       -0.163380930128489    
N    -3.64484313710706         3.42273552964344        0.113450308330337    
N    -4.04508497187474         2.93892626146237        0.865421082270399E-01
N    -4.38153340021932         2.40876837050858       -0.926179929406946E-01
N    -4.64888242944126         1.84062276342339       -0.443567941765226E-01
N    -4.84291580564315         1.24344943582428       -0.848739270527063E-01
N    -4.96057350657239        0.626666167821523        0.221871998110203    
N    -5.00000000000000        0.612323399573677E-15    0.135997806480762    
N    -4.96057350657239       -0.626666167821522        0.336516013889591    
N    -4.84291580564316        -1.24344943582427        0.135997806480762    
N    -4.64888242944126        -1.84062276342339        0.221871998110203    
N    -4.38153340021932        -2.40876837050858       -0.848739270527063E-01
N    -4.04508497187474        -2.93892626146236       -0.443567941765226E-01
N    -3.64484313710706        -3.42273552964344       -0.926179929406946E-01
N    -3.18711994874345        -3.85256621387895        0.865421082270399E-01
N    -2.67913397489498        -4.22163962751008        0.113450308330337    
N    -2.12889645782536        -4.52413526233010       -0.163380930128489    
N    -1.54508497187474        -4.75528258147577        0.436454802151229E-01
N   -0.936906572928623        -4.91143625364344        0.437682328952741E-01
N   -0.313952597646566        -4.99013364214136       -0.372606829054364E-01
N    0.313952597646564        -4.99013364214136        0.895638600030818E-02
N    0.936906572928621        -4.91143625364344        0.895638600030818E-02
N     1.54508497187474        -4.75528258147577       -0.372606829054364E-01
N     2.12889645782536        -4.52413526233010        0.437682328952741E-01
N     2.67913397489498        -4.22163962751008        0.436454802151229E-01
N     3.18711994874345        -3.85256621387895       -0.163380930128489    
N     3.64484313710706        -3.42273552964344        0.113450308330337    
N     4.04508497187474        -2.93892626146237        0.865421082270399E-01
N     4.38153340021932        -2.40876837050858       -0.926179929406946E-01
N     4.64888242944126        -1.84062276342339       -0.443567941765226E-01
N     4.84291580564315        -1.24344943582428       -0.848739270527063E-01
N     4.96057350657239       -0.626666167821523        0.221871998110203    
N     5.00000000000000       -0.122464679914735E-14    0.135997806480762    
          50

N     4.96057350657239        0.626666167821521        0.339113818742617    
N     4.84291580564316         1.24344943582427        0.155651023840607    
N     4.64888242944126         1.84062276342339        0.191604459143474    
N     4.38153340021932         2.40876837050858       -0.827254311273765E-01
N     4.04508497187474         2.93892626146237       -0.740005668255495E-01
N     3.64484313710706         3.42273552964344       -0.315629254682535E-01
N     3.18711994874345         3.85256621387895        0.666803282629322E-01
N     2.67913397489498         4.22163962751008        0.114339881438000    
N     2.12889645782536         4.52413526233010       -0.186844525436815    
N     1.54508497187474         4.75528258147577        0.602129727418530E-01
N    0.936906572928624         4.91143625364344        0.758630351483717E-01
N    0.313952597646568         4.99013364214136       -0.984633763145054E-01
N   -0.313952597646567         4.99013364214136        0.396882152259488E-01
N   -0.936906572928623         4.91143625364344        0.396882152259488E-01
N    -1.54508497187474         4.75528258147577       -0.984633763145054E-01
N    -2.12889645782536         4.52413526233010        0.758630351483717E-01
N    -2.67913397489498         4.22163962751007        0.602129727418530E-01
N    -3.18711994874345         3.85256621387895       -0.186844525436815    
N    -3.64484313710706         3.42273552964344        0.114339881438000    
N    -4.04508497187474         2.93892626146237        0.666803282629322E-01
N    -4.38153340021932         2.40876837050858       -0.315629254682535E-01
N    -4.64888242944126         1.84062276342339       -0.740005668255495E-01
N    -4.84291580564315         1.24344943582428       -0.827254311273765E-01
N    -4.96057350657239        0.626666167821523        0.191604459143474    
N    -5.00000000000000        0.612323399573677E-15    0.155651023840607    
N    -4.96057350657239       -0.626666167821522        0.339113818742617    
N    -4.84291580564316        -1.24344943582427        0.155651023840607    
N    -4.64888242944126        -1.84062276342339        0.191604459143474    
N    -4.38153340021932        -2.40876837050858       -0.827254311273765E-01
N    -4.04508497187474        -2.93892626146236       -0.740005668255495E-01
N    -3.64484313710706        -3.42273552964344       -0.315629254682535E-01
N    -3.18711994874345        -3.85256621387895        0.666803282629322E-01
N    -2.67913397489498        -4.22163962751008        0.114339881438000    
N    -2.12889645782536        -4.52413526233010       -0.186844525436815    
N    -1.54508497187474        -4.75528258147577        0.602129727418530E-01
N   -0.936906572928623        -4.91143625364344        0.758630351483717E-01
N   -0.313952597646566        -4.99013364214136       -0.984633763145054E-01
N    0.313952597646564        -4.99013364214136        0.396882152259488E-01
N    0.936906572928621        -4.91143625364344        0.396882152259488E-01
N     1.54508497187474        -4.75528258147577       -0.984633763145054E-01
N     2.12889645782536        -4.52413526233010        0.758630351483717E-01
N     2.67913397489498        -4.22163962751008        0.602129727418530E-01
N     3.18711994874345        -3.85256621387895       -0.186844525436815    
N     3.64484313710706        -3.42273552964344        0.114339881438000    
N     4.04508497187474        -2.93892626146237        0.666803282629322E-01
N     4.38153340021932        -2.40876837050858       -0.315629254682535E-01
N     4.64888242944126        -1.84062276342339       -0.740005668255495E-01
N     4.84291580564315        -1.24344943582428       -0.827254311273765E-01
N     4.96057350657239       -0.626666167821523        0.191604459143474    
N     5.00000000000000       -0.122464679914735E-14    0.155651023840607    
          50

N     4.96057350657239        0.626666167821521        0.327190146848020    
N     4.84291580564316         1.24344943582427        0.183932887091509    
N     4.64888242944126         1.84062276342339        0.149074580466519    
N     4.38153340021932         2.40876837050858       -0.693665566750141E-01
N     4.04508497187474         2.93892626146237       -0.102259905253757    
N     3.64484313710706         3.42273552964344        0.317072952262280E-01
N     3.18711994874345         3.85256621387895        0.447698743680198E-01
N     2.67913397489498         4.22163962751008        0.101434320798954    
N     2.12889645782536         4.52413526233010       -0.188601057410111    
N     1.54508497187474         4.75528258147577        0.676331387179278E-01
N    0.936906572928624         4.91143625364344        0.100420061223904    
N    0.313952597646568         4.99013364214136       -0.147293527840265    
N   -0.313952597646567         4.99013364214136        0.649538158620726E-01
N   -0.936906572928623         4.91143625364344        0.649538158620726E-01
N    -1.54508497187474         4.75528258147577       -0.147293527840265    
N    -2.12889645782536         4.52413526233010        0.100420061223904    
N    -2.67913397489498         4.22163962751007        0.676331387179278E-01
N    -3.18711994874345         3.85256621387895       -0.188601057410111    
N    -3.64484313710706         3.42273552964344        0.101434320798954    
N    -4.04508497187474         2.93892626146237        0.447698743680198E-01
N    -4.38153340021932         2.40876837050858        0.317072952262280E-01
N    -4.64888242944126         1.84062276342339       -0.102259905253757    
N    -4.84291580564315         1.24344943582428       -0.693665566750141E-01
N    -4.96057350657239        0.626666167821523        0.149074580466519    
N    -5.00000000000000        0.612323399573677E-15    0.183932887091509    
N    -4.96057350657239       -0.626666167821522        0.327190146848020    
N    -4.84291580564316        -1.24344943582427        0.183932887091509    
N    -4.64888242944126        -1.84062276342339        0.149074580466519    
N    -4.38153340021932        -2.40876837050858       -0.693665566750141E-01
N    -4.04508497187474        -2.93892626146236       -0.102259905253757    
N    -3.64484313710706        -3.42273552964344        0.317072952262280E-01
N    -3.18711994874345        -3.85256621387895        0.447698743680198E-01
N    -2.67913397489498        -4.22163962751008        0.101434320798954    
N    -2.12889645782536        -4.52413526233010       -0.188601057410111    
N    -1.54508497187474        -4.75528258147577        0.676331387179278E-01
N   -0.936906572928623        -4.91143625364344        0.100420061223904    
N   -0.313952597646566        -4.99013364214136       -0.147293527840265    
N    0.313952597646564        -4.99013364214136        0.649538158620726E-01
N    0.936906572928621        -4.91143625364344        0.649538158620726E-01
N     1.54508497187474        -4.75528258147577       -0.147293527840265    
N     2.12889645782536        -4.52413526233010        0.100420061223904    
N     2.67913397489498        -4.22163962751008        0.676331387179278E-01
N     3.18711994874345        -3.85256621387895       -0.188601057410111    
N     3.64484313710706        -3.42273552964344        0.101434320798954    
N     4.04508497187474        -2.93892626146237        0.447698743680198E-01
N     4.38153340021932        -2.40876837050858        0.317072952262280E-01
N     4.64888242944126        -1.84062276342339       -0.102259905253757    
N     4.84291580564315        -1.24344943582428       -0.693665566750141E-01
N     4.96057350657239       -0.626666167821523        0.149074580466519    
N     5.00000000000000       -0.122464679914735E-14    0.183932887091509    
          50

N     4.96057350657239        0.626666167821521        0.303910681163589    
N     4.84291580564316         1.24344943582427        0.216459622902833    
N     4.64888242944126         1.84062276342339        0.992891121477929E-01
N     4.38153340021932         2.40876837050858       -0.486372728049746E-01
N     4.04508497187474         2.93892626146237       -0.123880591914861    
N     3.64484313710706         3.42273552964344        0.902013277161728E-01
N     3.18711994874345         3.85256621387895        0.245300247154269E-01
N     2.67913397489498         4.22163962751008        0.748310222353154E-01
N     2.12889645782536         4.52413526233010       -0.168727554704092    
N     1.54508497187474         4.75528258147577        0.662100295737352E-01
N    0.936906572928624         4.91143625364344        0.113862995187837    
N    0.313952597646568         4.99013364214136       -0.177912836534217    
N   -0.313952597646567         4.99013364214136        0.818187808972327E-01
N   -0.936906572928623         4.91143625364344        0.818187808972327E-01
N    -1.54508497187474         4.75528258147577       -0.177912836534217    
N    -2.12889645782536         4.52413526233010        0.113862995187837    
N    -2.67913397489498         4.22163962751007        0.662100295737352E-01
N    -3.18711994874345         3.85256621387895       -0.168727554704092    
N    -3.64484313710706         3.42273552964344        0.748310222353154E-01
N    -4.04508497187474         2.93892626146237        0.245300247154269E-01
N    -4.38153340021932         2.40876837050858        0.902013277161728E-01
N    -4.64888242944126         1.84062276342339       -0.123880591914861    
N    -4.84291580564315         1.24344943582428       -0.486372728049746E-01
N    -4.96057350657239        0.626666167821523        0.992891121477929E-01
N    -5.00000000000000        0.612323399573677E-15    0.216459622902833    
N    -4.96057350657239       -0.626666167821522        0.303910681163589    
N    -4.84291580564316        -1.24344943582427        0.216459622902833    
N    -4.64888242944126        -1.84062276342339        0.992891121477929E-01
N    -4.38153340021932        -2.40876837050858       -0.486372728049746E-01
N    -4.04508497187474        -2.93892626146236       -0.123880591914861    
N    -3.64484313710706        -3.42273552964344        0.902013277161728E-01
N    -3.18711994874345        -3.85256621387895        0.245300247154269E-01
N    -2.67913397489498        -4.22163962751008        0.748310222353154E-01
N    -2.12889645782536        -4.52413526233010       -0.168727554704092    
N    -1.54508497187474        -4.75528258147577        0.662100295737352E-01
N   -0.936906572928623        -4.91143625364344        0.113862995187837    
N   -0.313952597646566        -4.99013364214136       -0.177912836534217    
N    0.313952597646564        -4.99013364214136        0.818187808972327E-01
N    0.936906572928621        -4.91143625364344        0.818187808972327E-01
N     1.54508497187474        -4.75528258147577       -0.177912836534217    
N     2.12889645782536        -4.52413526233010        0.113862995187837    
N     2.67913397489498        -4.22163962751008        0.662100295737352E-01
N     3.18711994874345        -3.85256621387895       -0.168727554704092    
N     3.64484313710706        -3.42273552964344        0.748310222353154E-01
N     4.04508497187474        -2.93892626146237        0.245300247154269E-01
N     4.38153340021932        -2.40876837050858        0.902013277161728E-01
N     4.64888242944126        -1.84062276342339       -0.123880591914861    
N     4.84291580564315        -1.24344943582428       -0.486372728049746E-01
N     4.96057350657239       -0.626666167821523        0.992891121477929E-01
N     5.00000000000000       -0.122464679914735E-14    0.216459622902833    
          50

N     4.96057350657239        0.626666167821521        0.273673691470954    
N     4.84291580564316         1.24344943582427        0.247778206512570    
N     4.64888242944126         1.84062276342339        0.482872959714615E-01
N     4.38153340021932         2.40876837050858       -0.249857332858580E-01
N     4.04508497187474         2.93892626146237       -0.134032562256753    
N     3.64484313710706         3.42273552964344        0.137633247954033    
N     3.18711994874345         3.85256621387895        0.882232517097515E-02
N     2.67913397489498         4.22163962751008        0.366301492036867E-01
N     2.12889645782536         4.52413526233010       -0.129905146677575    
N     1.54508497187474         4.75528258147577        0.573637683870225E-01
N    0.936906572928624         4.91143625364344        0.113867274131430    
N    0.313952597646568         4.99013364214136       -0.186697871706884    
N   -0.313952597646567         4.99013364214136        0.884022008604110E-01
N   -0.936906572928623         4.91143625364344        0.884022008604110E-01
N    -1.54508497187474         4.75528258147577       -0.186697871706884    
N    -2.12889645782536         4.52413526233010        0.113867274131430    
N    -2.67913397489498         4.22163962751007        0.573637683870225E-01
N    -3.18711994874345         3.85256621387895       -0.129905146677575    
N    -3.64484313710706         3.42273552964344        0.366301492036867E-01
N    -4.04508497187474         2.93892626146237        0.882232517097515E-02
N    -4.38153340021932         2.40876837050858        0.137633247954033    
N    -4.64888242944126         1.84062276342339       -0.134032562256753    
N    -4.84291580564315         1.24344943582428       -0.249857332858580E-01
N    -4.96057350657239        0.626666167821523        0.482872959714615E-01
N    -5.00000000000000        0.612323399573677E-15    0.247778206512570    
N    -4.96057350657239       -0.626666167821522        0.273673691470954    
N    -4.84291580564316        -1.24344943582427        0.247778206512570    
N    -4.64888242944126        -1.84062276342339        0.482872959714615E-01
N    -4.38153340021932        -2.40876837050858       -0.249857332858580E-01
N    -4.04508497187474        -2.93892626146236       -0.134032562256753    
N    -3.64484313710706        -3.42273552964344        0.137633247954033    
N    -3.18711994874345        -3.85256621387895        0.882232517097515E-02
N    -2.67913397489498        -4.22163962751008        0.366301492036867E-01
N    -2.12889645782536        -4.52413526233010       -0.129905146677575    
N    -1.54508497187474        -4.75528258147577        0.573637683870225E-01
N   -0.936906572928623        -4.91143625364344        0.113867274131430    
N   -0.313952597646566        -4.99013364214136       -0.186697871706884    
N    0.313952597646564        -4.99013364214136        0.884022008604110E-01
N    0.936906572928621        -4.91143625364344        0.884022008604110E-01
N     1.54508497187474        -4.75528258147577       -0.186697871706884    
N     2.12889645782536        -4.52413526233010        0.113867274131430    
N     2.67913397489498        -4.22163962751008        0.573637683870225E-01
N     3.18711994874345        -3.85256621387895       -0.129905146677575    
N     3.64484313710706        -3.42273552964344        0.366301492036867E-01
N     4.04508497187474        -2.93892626146237        0.882232517097515E-02
N     4.38153340021932        -2.40876837050858        0.137633247954033    
N     4.64888242944126        -1.84062276342339       -0.134032562256753    
N     4.84291580564315        -1.24344943582428       -0.249857332858580E-01
N     4.96057350657239       -0.626666167821523        0.482872959714615E-01
N     5.00000000000000       -0.122464679914735E-14    0.247778206512570    
          50

N     4.96057350657239        0.626666167821521        0.241332817469479    
N     4.84291580564316         1.24344943582427        0.272208914432105    
N     4.64888242944126         1.84062276342339        0.227296181787286E-02
N     4.38153340021932         2.40876837050858       -0.268851425780665E-02
N     4.04508497187474         2.93892626146237       -0.129114953034261    
N     3.64484313710706         3.42273552964344        0.169223689427339    
N     3.18711994874345         3.85256621387895       -0.740980718443655E-03
N     2.67913397489498         4.22163962751008       -0.922522983909420E-02
N     2.12889645782536         4.52413526233010       -0.770676945535914E-01
N     1.54508497187474         4.75528258147577        0.433212570445670E-01
N    0.936906572928624         4.91143625364344        0.997426640689013E-01
N    0.313952597646568         4.99013364214136       -0.172693109418329    
N   -0.313952597646567         4.99013364214136        0.840945862959985E-01
N   -0.936906572928623         4.91143625364344        0.840945862959985E-01
N    -1.54508497187474         4.75528258147577       -0.172693109418329    
N    -2.12889645782536         4.52413526233010        0.997426640689013E-01
N    -2.67913397489498         4.22163962751007        0.433212570445670E-01
N    -3.18711994874345         3.85256621387895       -0.770676945535914E-01
N    -3.64484313710706         3.42273552964344       -0.922522983909420E-02
N    -4.04508497187474         2.93892626146237       -0.740980718443655E-03
N    -4.38153340021932         2.40876837050858        0.169223689427339    
N    -4.64888242944126         1.84062276342339       -0.129114953034261    
N    -4.84291580564315         1.24344943582428       -0.268851425780665E-02
N    -4.96057350657239        0.626666167821523        0.227296181787286E-02
N    -5.00000000000000        0.612323399573677E-15    0.272208914432105    
N    -4.96057350657239       -0.626666167821522        0.241332817469479    
N    -4.84291580564316        -1.24344943582427        0.272208914432105    
N    -4.64888242944126        -1.84062276342339        0.227296181787286E-02
N    -4.38153340021932        -2.40876837050858       -0.268851425780665E-02
N    -4.04508497187474        -2.93892626146236       -0.129114953034261    
N    -3.64484313710706        -3.42273552964344        0.169223689427339    
N    -3.18711994874345        -3.85256621387895       -0.740980718443655E-03
N    -2.67913397489498        -4.22163962751008       -0.922522983909420E-02
N    -2.12889645782536        -4.52413526233010       -0.770676945535914E-01
N    -1.54508497187474        -4.75528258147577        0.433212570445670E-01
N   -0.936906572928623        -4.91143625364344        0.997426640689013E-01
N   -0.313952597646566        -4.99013364214136       -0.172693109418329    
N    0.313952597646564        -4.99013364214136        0.840945862959985E-01
N    0.936906572928621        -4.91143625364344        0.840945862959985E-01
N     1.54508497187474        -4.75528258147577       -0.172693109418329    
N     2.12889645782536        -4.52413526233010        0.997426640689013E-01
N     2.67913397489498        -4.22163962751008        0.433212570445670E-01
N     3.18711994874345        -3.85256621387895       -0.770676945535914E-01
N     3.64484313710706        -3.42273552964344       -0.922522983909420E-02
N     4.04508497187474        -2.93892626146237       -0.740980718443655E-03
N     4.38153340021932        -2.40876837050858        0.169223689427339    
N     4.64888242944126        -1.84062276342339       -0.129114953034261    
N     4.84291580564315        -1.24344943582428       -0.268851425780665E-02
N     4.96057350657239       -0.626666167821523        0.227296181787286E-02
N     5.00000000000000       -0.122464679914735E-14    0.272208914432105    
          50

N     4.96057350657239        0.626666167821521        0.211365933268497    
N     4.84291580564316         1.24344943582427        0.284730294338573    
N     4.64888242944126         1.84062276342339       -0.332686896379946E-01
N     4.38153340021932         2.40876837050858        0.148737080818815E-01
N     4.04508497187474         2.93892626146237       -0.107397701850138    
N     3.64484313710706         3.42273552964344        0.182284099841702    
N     3.18711994874345         3.85256621387895       -0.395783192529674E-02
N     2.67913397489498         4.22163962751008       -0.573928855445239E-01
N     2.12889645782536         4.52413526233010       -0.167673662788166E-01
N     1.54508497187474         4.75528258147577        0.267184665967776E-01
N    0.936906572928624         4.91143625364344        0.726128044790039E-01
N    0.313952597646568         4.99013364214136       -0.137737699332814    
N   -0.313952597646567         4.99013364214136        0.696198345973933E-01
N   -0.936906572928623         4.91143625364344        0.696198345973933E-01
N    -1.54508497187474         4.75528258147577       -0.137737699332814    
N    -2.12889645782536         4.52413526233010        0.726128044790039E-01
N    -2.67913397489498         4.22163962751007        0.267184665967776E-01
N    -3.18711994874345         3.85256621387895       -0.167673662788166E-01
N    -3.64484313710706         3.42273552964344       -0.573928855445239E-01
N    -4.04508497187474         2.93892626146237       -0.395783192529674E-02
N    -4.38153340021932         2.40876837050858        0.182284099841702    
N    -4.64888242944126         1.84062276342339       -0.107397701850138    
N    -4.84291580564315         1.24344943582428        0.148737080818815E-01
N    -4.96057350657239        0.626666167821523       -0.332686896379946E-01
N    -5.00000000000000        0.612323399573677E-15    0.284730294338573    
N    -4.96057350657239       -0.626666167821522        0.211365933268497    
N    -4.84291580564316        -1.24344943582427        0.284730294338573    
N    -4.64888242944126        -1.84062276342339       -0.332686896379946E-01
N    -4.38153340021932        -2.40876837050858        0.148737080818815E-01
N    -4.04508497187474        -2.93892626146236       -0.107397701850138    
N    -3.64484313710706        -3.42273552964344        0.182284099841702    
N    -3.18711994874345        -3.85256621387895       -0.395783192529674E-02
N    -2.67913397489498        -4.22163962751008       -0.573928855445239E-01
N    -2.12889645782536        -4.52413526233010       -0.167673662788166E-01
N    -1.54508497187474        -4.75528258147577        0.267184665967776E-01
N   -0.936906572928623        -4.91143625364344        0.726128044790039E-01
N   -0.313952597646566        -4.99013364214136       -0.137737699332814    
N    0.313952597646564        -4.99013364214136        0.696198345973933E-01
N    0.936906572928621        -4.91143625364344        0.696198345973933E-01
N     1.54508497187474        -4.75528258147577       -0.137737699332814    
N     2.12889645782536        -4.52413526233010        0.726128044790039E-01
N     2.67913397489498        -4.22163962751008        0.267184665967776E-01
N     3.18711994874345        -3.85256621387895       -0.167673662788166E-01
N     3.64484313710706        -3.42273552964344       -0.573928855445239E-01
N     4.04508497187474        -2.93892626146237       -0.395783192529674E-02
N     4.38153340021932        -2.40876837050858        0.182284099841702    
N     4.64888242944126        -1.84062276342339       -0.107397701850138    
N     4.84291580564315        -1.24344943582428        0.148737080818815E-01
N     4.96057350657239       -0.626666167821523       -0.332686896379946E-01
N     5.00000000000000       -0.122464679914735E-14    0.284730294338573    
          50

N     4.96057350657239        0.626666167821521        0.187125547092097    
N     4.84291580564316         1.24344943582427        0.281769007648048    
N     4.64888242944126         1.84062276342339       -0.543363408330837E-01
N     4.38153340021932         2.40876837050858        0.257676815947646E-01
N     4.04508497187474         2.93892626146237       -0.693973702629206E-01
N     3.64484313710706         3.42273552964344        0.176506202865621    
N     3.18711994874345         3.85256621387895       -0.194825300357834E-02
N     2.67913397489498         4.22163962751008       -0.101805192056739    
N     2.12889645782536         4.52413526233010        0.436593871367682E-01
N     1.54508497187474         4.75528258147577        0.101778621731812E-01
N    0.936906572928624         4.91143625364344        0.353568922380649E-01
N    0.313952597646568         4.99013364214136       -0.862464335819405E-01
N   -0.313952597646567         4.99013364214136        0.469337825357613E-01
N   -0.936906572928623         4.91143625364344        0.469337825357613E-01
N    -1.54508497187474         4.75528258147577       -0.862464335819405E-01
N    -2.12889645782536         4.52413526233010        0.353568922380649E-01
N    -2.67913397489498         4.22163962751007        0.101778621731812E-01
N    -3.18711994874345         3.85256621387895        0.436593871367682E-01
N    -3.64484313710706         3.42273552964344       -0.101805192056739    
N    -4.04508497187474         2.93892626146237       -0.194825300357834E-02
N    -4.38153340021932         2.40876837050858        0.176506202865621    
N    -4.64888242944126         1.84062276342339       -0.693973702629206E-01
N    -4.84291580564315         1.24344943582428        0.257676815947646E-01
N    -4.96057350657239        0.626666167821523       -0.543363408330837E-01
N    -5.00000000000000        0.612323399573677E-15    0.281769007648048    
N    -4.96057350657239       -0.626666167821522        0.187125547092097    
N    -4.84291580564316        -1.24344943582427        0.281769007648048    
N    -4.64888242944126        -1.84062276342339       -0.543363408330837E-01
N    -4.38153340021932        -2.40876837050858        0.257676815947646E-01
N    -4.04508497187474        -2.93892626146236       -0.693973702629206E-01
N    -3.64484313710706        -3.42273552964344        0.176506202865621    
N    -3.18711994874345        -3.85256621387895       -0.194825300357834E-02
N    -2.67913397489498        -4.22163962751008       -0.101805192056739    
N    -2.12889645782536        -4.52413526233010        0.436593871367682E-01
N    -1.54508497187474        -4.75528258147577        0.101778621731812E-01
N   -0.936906572928623        -4.91143625364344        0.353568922380649E-01
N   -0.313952597646566        -4.99013364214136       -0.862464335819405E-01
N    0.313952597646564        -4.99013364214136        0.469337825357613E-01
N    0.936906572928621        -4.91143625364344        0.469337825357613E-01
N     1.54508497187474        -4.75528258147577       -0.862464335819405E-01
N     2.12889645782536        -4.52413526233010        0.353568922380649E-01
N     2.67913397489498        -4.22163962751008        0.101778621731812E-01
N     3.18711994874345        -3.85256621387895        0.436593871367682E-01
N     3.64484313710706        -3.42273552964344       -0.101805192056739    
N     4.04508497187474        -2.93892626146237       -0.194825300357834E-02
N     4.38153340021932        -2.40876837050858        0.176506202865621    
N     4.64888242944126        -1.84062276342339       -0.693973702629206E-01
N     4.84291580564315        -1.24344943582428        0.257676815947646E-01
N     4.96057350657239       -0.626666167821523       -0.543363408330837E-01
N     5.00000000000000       -0.122464679914735E-14    0.281769007648048    
          50

N     4.96057350657239        0.626666167821521        0.170292254055964    
N     4.84291580564316         1.24344943582427        0.261772373388084    
N     4.64888242944126         1.84062276342339       -0.589464428387409E-01
N     4.38153340021932         2.40876837050858        0.297977265585819E-01
N     4.04508497187474         2.93892626146237       -0.179243203431568E-01
N     3.64484313710706         3.42273552964344        0.153922366026768    
N     3.18711994874345         3.85256621387895        0.316063486099976E-02
N     2.67913397489498         4.22163962751008       -0.136483169351327    
N     2.12889645782536         4.52413526233010        0.970161284202176E-01
N     1.54508497187474         4.75528258147577       -0.407501159210351E-02
N    0.936906572928624         4.91143625364344       -0.768981319681490E-02
N    0.313952597646568         4.99013364214136       -0.246686405646932E-01
N   -0.313952597646567         4.99013364214136        0.189720416041990E-01
N   -0.936906572928623         4.91143625364344        0.189720416041990E-01
N    -1.54508497187474         4.75528258147577       -0.246686405646932E-01
N    -2.12889645782536         4.52413526233010       -0.768981319681490E-02
N    -2.67913397489498         4.22163962751007       -0.407501159210351E-02
N    -3.18711994874345         3.85256621387895        0.970161284202176E-01
N    -3.64484313710706         3.42273552964344       -0.136483169351327    
N    -4.04508497187474         2.93892626146237        0.316063486099976E-02
N    -4.38153340021932         2.40876837050858        0.153922366026768    
N    -4.64888242944126         1.84062276342339       -0.179243203431568E-01
N    -4.84291580564315         1.24344943582428        0.297977265585819E-01
N    -4.96057350657239        0.626666167821523       -0.589464428387409E-01
N    -5.00000000000000        0.612323399573677E-15    0.261772373388084    
N    -4.96057350657239       -0.626666167821522        0.170292254055964    
N    -4.84291580564316        -1.24344943582427        0.261772373388084    
N    -4.64888242944126        -1.84062276342339       -0.589464428387409E-01
N    -4.38153340021932        -2.40876837050858        0.297977265585819E-01
N    -4.04508497187474        -2.93892626146236       -0.179243203431568E-01
N    -3.64484313710706        -3.42273552964344        0.153922366026768    
N    -3.18711994874345        -3.85256621387895        0.316063486099976E-02
N    -2.67913397489498        -4.22163962751008       -0.136483169351327    
N    -2.12889645782536        -4.52413526233010        0.970161284202176E-01
N    -1.54508497187474        -4.75528258147577       -0.407501159210351E-02
N   -0.936906572928623        -4.91143625364344       -0.768981319681490E-02
N   -0.313952597646566        -4.99013364214136       -0.246686405646932E-01
N    0.313952597646564        -4.99013364214136        0.189720416041990E-01
N    0.936906572928621        -4.91143625364344        0.189720416041990E-01
N     1.54508497187474        -4.75528258147577       -0.246686405646932E-01
N     2.12889645782536        -4.52413526233010       -0.768981319681490E-02
N     2.67913397489498        -4.22163962751008       -0.407501159210351E-02
N     3.18711994874345        -3.85256621387895        0.970161284202176E-01
N     3.64484313710706        -3.42273552964344       -0.136483169351327    
N     4.04508497187474        -2.93892626146237        0.316063486099976E-02
N     4.38153340021932        -2.40876837050858        0.153922366026768    
N     4.64888242944126        -1.84062276342339       -0.179243203431568E-01
N     4.84291580564315        -1.24344943582428        0.297977265585819E-01
N     4.96057350657239       -0.626666167821523       -0.589464428387409E-01
N     5.00000000000000       -0.122464679914735E-14    0.261772373388084    
          50

N     4.96057350657239        0.626666167821521        0.160619585201001    
N     4.84291580564316         1.24344943582427        0.225475735921182    
N     4.64888242944126         1.84062276342339       -0.473594754320050E-01
N     4.38153340021932         2.40876837050858        0.284886638076017E-01
N     4.04508497187474         2.93892626146237        0.422123505834261E-01
N     3.64484313710706         3.42273552964344        0.118550514910422    
N     3.18711994874345         3.85256621387895        0.871796861845826E-02
N     2.67913397489498         4.22163962751008       -0.156377470736137    
N     2.12889645782536         4.52413526233010        0.137140535715394    
N     1.54508497187474         4.75528258147577       -0.145007924096829E-01
N    0.936906572928624         4.91143625364344       -0.512466296060391E-01
N    0.313952597646568         4.99013364214136        0.393102813497889E-01
N   -0.313952597646567         4.99013364214136       -0.107214753229133E-01
N   -0.936906572928623         4.91143625364344       -0.107214753229133E-01
N    -1.54508497187474         4.75528258147577        0.393102813497889E-01
N    -2.12889645782536         4.52413526233010       -0.512466296060391E-01
N    -2.67913397489498         4.22163962751007       -0.145007924096829E-01
N    -3.18711994874345         3.85256621387895        0.137140535715394    
N    -3.64484313710706         3.42273552964344       -0.156377470736137    
N    -4.04508497187474         2.93892626146237        0.871796861845826E-02
N    -4.38153340021932         2.40876837050858        0.118550514910422    
N    -4.64888242944126         1.84062276342339        0.422123505834261E-01
N    -4.84291580564315         1.24344943582428        0.284886638076017E-01
N    -4.96057350657239        0.626666167821523       -0.473594754320050E-01
N    -5.00000000000000        0.612323399573677E-15    0.225475735921182    
N    -4.96057350657239       -0.626666167821522        0.160619585201001    
N    -4.84291580564316        -1.24344943582427        0.225475735921182    
N    -4.64888242944126        -1.84062276342339       -0.473594754320050E-01
N    -4.38153340021932        -2.40876837050858        0.284886638076017E-01
N    -4.04508497187474        -2.93892626146236        0.422123505834261E-01
N    -3.64484313710706        -3.42273552964344        0.118550514910422    
N    -3.18711994874345        -3.85256621387895        0.871796861845826E-02
N    -2.67913397489498        -4.22163962751008       -0.156377470736137    
N    -2.12889645782536        -4.52413526233010        0.137140535715394    
N    -1.54508497187474        -4.75528258147577       -0.145007924096829E-01
N   -0.936906572928623        -4.91143625364344       -0.512466296060391E-01
N   -0.313952597646566        -4.99013364214136        0.393102813497889E-01
N    0.313952597646564        -4.99013364214136       -0.107214753229133E-01
N    0.936906572928621        -4.91143625364344       -0.107214753229133E-01
N     1.54508497187474        -4.75528258147577        0.393102813497889E-01
N     2.12889645782536        -4.52413526233010       -0.512466296060391E-01
N     2.67913397489498        -4.22163962751008       -0.145007924096829E-01
N     3.18711994874345        -3.85256621387895        0.137140535715394    
N     3.64484313710706        -3.42273552964344       -0.156377470736137    
N     4.04508497187474        -2.93892626146237        0.871796861845826E-02
N     4.38153340021932        -2.40876837050858        0.118550514910422    
N     4.64888242944126        -1.84062276342339        0.422123505834261E-01
N     4.84291580564315        -1.24344943582428        0.284886638076017E-01
N     4.96057350657239       -0.626666167821523       -0.473594754320050E-01
N     5.00000000000000       -0.122464679914735E-14    0.225475735921182    
          50

N     4.96057350657239        0.626666167821521        0.156011507430297    
N     4.84291580564316         1.24344943582427        0.175824512198366    
N     4.64888242944126         1.84062276342339       -0.219707768434892E-01
N     4.38153340021932         2.40876837050858        0.247655789398759E-01
N     4.04508497187474         2.93892626146237        0.104804091884718    
N     3.64484313710706         3.42273552964344        0.757823280487254E-01
N     3.18711994874345         3.85256621387895        0.121155295610778E-01
N     2.67913397489498         4.22163962751008       -0.158115424313702    
N     2.12889645782536         4.52413526233010        0.159652879410678    
N     1.54508497187474         4.75528258147577       -0.204033695192103E-01
N    0.936906572928624         4.91143625364344       -0.897486254734383E-01
N    0.313952597646568         4.99013364214136        0.977265453478377E-01
N   -0.313952597646567         4.99013364214136       -0.384390229565900E-01
N   -0.936906572928623         4.91143625364344       -0.384390229565900E-01
N    -1.54508497187474         4.75528258147577        0.977265453478377E-01
N    -2.12889645782536         4.52413526233010       -0.897486254734383E-01
N    -2.67913397489498         4.22163962751007       -0.204033695192103E-01
N    -3.18711994874345         3.85256621387895        0.159652879410678    
N    -3.64484313710706         3.42273552964344       -0.158115424313702    
N    -4.04508497187474         2.93892626146237        0.121155295610778E-01
N    -4.38153340021932         2.40876837050858        0.757823280487254E-01
N    -4.64888242944126         1.84062276342339        0.104804091884718    
N    -4.84291580564315         1.24344943582428        0.247655789398759E-01
N    -4.96057350657239        0.626666167821523       -0.219707768434892E-01
N    -5.00000000000000        0.612323399573677E-15    0.175824512198366    
N    -4.96057350657239       -0.626666167821522        0.156011507430297    
N    -4.84291580564316        -1.24344943582427        0.175824512198366    
N    -4.64888242944126        -1.84062276342339       -0.219707768434892E-01
N    -4.38153340021932        -2.40876837050858        0.247655789398759E-01
N    -4.04508497187474        -2.93892626146236        0.104804091884718    
N    -3.64484313710706        -3.42273552964344        0.757823280487254E-01
N    -3.18711994874345        -3.85256621387895        0.121155295610778E-01
N    -2.67913397489498        -4.22163962751008       -0.158115424313702    
N    -2.12889645782536        -4.52413526233010        0.159652879410678    
N    -1.54508497187474        -4.75528258147577       -0.204033695192103E-01
N   -0.936906572928623        -4.91143625364344       -0.897486254734383E-01
N   -0.313952597646566        -4.99013364214136        0.977265453478377E-01
N    0.313952597646564        -4.99013364214136       -0.384390229565900E-01
N    0.936906572928621        -4.91143625364344       -0.384390229565900E-01
N     1.54508497187474        -4.75528258147577        0.977265453478377E-01
N     2.12889645782536        -4.52413526233010       -0.897486254734383E-01
N     2.67913397489498        -4.22163962751008       -0.204033695192103E-01
N     3.18711994874345        -3.85256621387895        0.159652879410678    
N     3.64484313710706        -3.42273552964344       -0.158115424313702    
N     4.04508497187474        -2.93892626146237        0.121155295610778E-01
N     4.38153340021932        -2.40876837050858        0.757823280487254E-01
N     4.64888242944126        -1.84062276342339        0.104804091884718    
N     4.84291580564315        -1.24344943582428        0.247655789398759E-01
N     4.96057350657239       -0.626666167821523       -0.219707768434892E-01
N     5.00000000000000       -0.122464679914735E-14    0.175824512198366    
          50

N     4.96057350657239        0.626666167821521        0.152920311362109    
N     4.84291580564316         1.24344943582427        0.117564407879483    
N     4.64888242944126         1.84062276342339        0.131097833110371E-01
N     4.38153340021932         2.40876837050858        0.223836574101860E-01
N     4.04508497187474         2.93892626146237        0.163062235194048    
N     3.64484313710706         3.42273552964344        0.316090367509248E-01
N     3.18711994874345         3.85256621387895        0.113388466020248E-01
N     2.67913397489498         4.22163962751008       -0.140543165028030    
N     2.12889645782536         4.52413526233010        0.162463894983765    
N     1.54508497187474         4.75528258147577       -0.219388460849724E-01
N    0.936906572928624         4.91143625364344       -0.118074320188170    
N    0.313952597646568         4.99013364214136        0.143335302928948    
N   -0.313952597646567         4.99013364214136       -0.607709894403027E-01
N   -0.936906572928623         4.91143625364344       -0.607709894403027E-01
N    -1.54508497187474         4.75528258147577        0.143335302928948    
N    -2.12889645782536         4.52413526233010       -0.118074320188170    
N    -2.67913397489498         4.22163962751007       -0.219388460849724E-01
N    -3.18711994874345         3.85256621387895        0.162463894983765    
N    -3.64484313710706         3.42273552964344       -0.140543165028030    
N    -4.04508497187474         2.93892626146237        0.113388466020248E-01
N    -4.38153340021932         2.40876837050858        0.316090367509248E-01
N    -4.64888242944126         1.84062276342339        0.163062235194048    
N    -4.84291580564315         1.24344943582428        0.223836574101860E-01
N    -4.96057350657239        0.626666167821523        0.131097833110371E-01
N    -5.00000000000000        0.612323399573677E-15    0.117564407879483    
N    -4.96057350657239       -0.626666167821522        0.152920311362109    
N    -4.84291580564316        -1.24344943582427        0.117564407879483    
N    -4.64888242944126        -1.84062276342339        0.131097833110371E-01
N    -4.38153340021932        -2.40876837050858        0.223836574101860E-01
N    -4.04508497187474        -2.93892626146236        0.163062235194048    
N    -3.64484313710706        -3.42273552964344        0.316090367509248E-01
N    -3.18711994874345        -3.85256621387895        0.113388466020248E-01
N    -2.67913397489498        -4.22163962751008       -0.140543165028030    
N    -2.12889645782536        -4.52413526233010        0.162463894983765    
N    -1.54508497187474        -4.75528258147577       -0.219388460849724E-01
N   -0.936906572928623        -4.91143625364344       -0.118074320188170    
N   -0.313952597646566        -4.99013364214136        0.143335302928948    
N    0.313952597646564        -4.99013364214136       -0.607709894403027E-01
N    0.936906572928621        -4.91143625364344       -0.607709894403027E-01
N     1.54508497187474        -4.75528258147577        0.143335302928948    
N     2.12889645782536        -4.52413526233010       -0.118074320188170    
N     2.67913397489498        -4.22163962751008       -0.219388460849724E-01
N     3.18711994874345        -3.85256621387895        0.162463894983765    
N     3.64484313710706        -3.42273552964344       -0.140543165028030    
N     4.04508497187474        -2.93892626146237        0.113388466020248E-01
N     4.38153340021932        -2.40876837050858        0.316090367509248E-01
N     4.64888242944126        -1.84062276342339        0.163062235194048    
N     4.84291580564315        -1.24344943582428        0.223836574101860E-01
N     4.96057350657239       -0.626666167821523        0.131097833110371E-01
N     5.00000000000000       -0.122464679914735E-14    0.117564407879483    
          50

N     4.96057350657239        0.626666167821521        0.147001136177168    
N     4.84291580564316         1.24344943582427        0.565644236467654E-01
N     4.64888242944126         1.84062276342339        0.527174793987988E-01
N     4.38153340021932         2.40876837050858        0.252020217986503E-01
N     4.04508497187474         2.93892626146237        0.210539556465601    
N     3.64484313710706         3.42273552964344       -0.819990739227670E-02
N     3.18711994874345         3.85256621387895        0.540758799798683E-02
N     2.67913397489498         4.22163962751008       -0.104978225016985    
N     2.12889645782536         4.52413526233010        0.145980051889508    
N     1.54508497187474         4.75528258147577       -0.199843011620718E-01
N    0.936906572928624         4.91143625364344       -0.132243258578297    
N    0.313952597646568         4.99013364214136        0.170521606741339    
N   -0.313952597646567         4.99013364214136       -0.750276038776057E-01
N   -0.936906572928623         4.91143625364344       -0.750276038776057E-01
N    -1.54508497187474         4.75528258147577        0.170521606741339    
N    -2.12889645782536         4.52413526233010       -0.132243258578297    
N    -2.67913397489498         4.22163962751007       -0.199843011620718E-01
N    -3.18711994874345         3.85256621387895        0.145980051889508    
N    -3.64484313710706         3.42273552964344       -0.104978225016985    
N    -4.04508497187474         2.93892626146237        0.540758799798683E-02
N    -4.38153340021932         2.40876837050858       -0.819990739227670E-02
N    -4.64888242944126         1.84062276342339        0.210539556465601    
N    -4.84291580564315         1.24344943582428        0.252020217986503E-01
N    -4.96057350657239        0.626666167821523        0.527174793987988E-01
N    -5.00000000000000        0.612323399573677E-15    0.565644236467654E-01
N    -4.96057350657239       -0.626666167821522        0.147001136177168    
N    -4.84291580564316        -1.24344943582427        0.565644236467654E-01
N    -4.64888242944126        -1.84062276342339        0.527174793987988E-01
N    -4.38153340021932        -2.40876837050858        0.252020217986503E-01
N    -4.04508497187474        -2.93892626146236        0.210539556465601    
N    -3.64484313710706        -3.42273552964344       -0.819990739227670E-02
N    -3.18711994874345        -3.85256621387895        0.540758799798683E-02
N    -2.67913397489498        -4.22163962751008       -0.104978225016985    
N    -2.12889645782536        -4.52413526233010        0.145980051889508    
N    -1.54508497187474        -4.75528258147577       -0.199843011620718E-01
N   -0.936906572928623        -4.91143625364344       -0.132243258578297    
N   -0.313952597646566        -4.99013364214136        0.170521606741339    
N    0.313952597646564        -4.99013364214136       -0.750276038776057E-01
N    0.936906572928621        -4.91143625364344       -0.750276038776057E-01
N     1.54508497187474        -4.75528258147577        0.170521606741339    
N     2.12889645782536        -4.52413526233010       -0.132243258578297    
N     2.67913397489498        -4.22163962751008       -0.199843011620718E-01
N     3.18711994874345        -3.85256621387895        0.145980051889508    
N     3.64484313710706        -3.42273552964344       -0.104978225016985    
N     4.04508497187474        -2.93892626146237        0.540758799798683E-02
N     4.38153340021932        -2.40876837050858       -0.819990739227670E-02
N     4.64888242944126        -1.84062276342339        0.210539556465601    
N     4.84291580564315        -1.24344943582428        0.252020217986503E-01
N     4.96057350657239       -0.626666167821523        0.527174793987988E-01
N     5.00000000000000       -0.122464679914735E-14    0.565644236467654E-01
          50

N     4.96057350657239        0.626666167821521        0.133918024060320    
N     4.84291580564316         1.24344943582427       -0.102204271114618E-02
N     4.64888242944126         1.84062276342339        0.914243313799132E-01
N     4.38153340021932         2.40876837050858        0.364212982990487E-01
N     4.04508497187474         2.93892626146237        0.242020140283173    
N     3.64484313710706         3.42273552964344       -0.388466187972337E-01
N     3.18711994874345         3.85256621387895       -0.537187713734200E-02
N     2.67913397489498         4.22163962751008       -0.551271836706682E-01
N     2.12889645782536         4.52413526233010        0.112985136771455    
N     1.54508497187474         4.75528258147577       -0.158960896354800E-01
N    0.936906572928624         4.91143625364344       -0.129987103183347    
N    0.313952597646568         4.99013364214136        0.176008642479196    
N   -0.313952597646567         4.99013364214136       -0.795676461077326E-01
N   -0.936906572928623         4.91143625364344       -0.795676461077326E-01
N    -1.54508497187474         4.75528258147577        0.176008642479196    
N    -2.12889645782536         4.52413526233010       -0.129987103183347    
N    -2.67913397489498         4.22163962751007       -0.158960896354800E-01
N    -3.18711994874345         3.85256621387895        0.112985136771455    
N    -3.64484313710706         3.42273552964344       -0.551271836706682E-01
N    -4.04508497187474         2.93892626146237       -0.537187713734200E-02
N    -4.38153340021932         2.40876837050858       -0.388466187972337E-01
N    -4.64888242944126         1.84062276342339        0.242020140283173    
N    -4.84291580564315         1.24344943582428        0.364212982990487E-01
N    -4.96057350657239        0.626666167821523        0.914243313799132E-01
N    -5.00000000000000        0.612323399573677E-15   -0.102204271114618E-02
N    -4.96057350657239       -0.626666167821522        0.133918024060320    
N    -4.84291580564316        -1.24344943582427       -0.102204271114618E-02
N    -4.64888242944126        -1.84062276342339        0.914243313799132E-01
N    -4.38153340021932        -2.40876837050858        0.364212982990487E-01
N    -4.04508497187474        -2.93892626146236        0.242020140283173    
N    -3.64484313710706        -3.42273552964344       -0.388466187972337E-01
N    -3.18711994874345        -3.85256621387895       -0.537187713734200E-02
N    -2.67913397489498        -4.22163962751008       -0.551271836706682E-01
N    -2.12889645782536        -4.52413526233010        0.112985136771455    
N    -1.54508497187474        -4.75528258147577       -0.158960896354800E-01
N   -0.936906572928623        -4.91143625364344       -0.129987103183347    
N   -0.313952597646566        -4.99013364214136        0.176008642479196    
N    0.313952597646564        -4.99013364214136       -0.795676461077326E-01
N    0.936906572928621        -4.91143625364344       -0.795676461077326E-01
N     1.54508497187474        -4.75528258147577        0.176008642479196    
N     2.12889645782536        -4.52413526233010       -0.129987103183347    
N     2.67913397489498        -4.22163962751008       -0.158960896354800E-01
N     3.18711994874345        -3.85256621387895        0.112985136771455    
N     3.64484313710706        -3.42273552964344       -0.551271836706682E-01
N     4.04508497187474        -2.93892626146237       -0.537187713734200E-02
N     4.38153340021932        -2.40876837050858       -0.388466187972337E-01
N     4.64888242944126        -1.84062276342339        0.242020140283173    
N     4.84291580564315        -1.24344943582428        0.364212982990487E-01
N     4.96057350657239       -0.626666167821523        0.914243313799132E-01
N     5.00000000000000       -0.122464679914735E-14   -0.102204271114618E-02
          50

N     4.96057350657239        0.626666167821521        0.110171649541560    
N     4.84291580564316         1.24344943582427       -0.496287078633211E-01
N     4.64888242944126         1.84062276342339        0.124336955575631    
N     4.38153340021932         2.40876837050858        0.579114562381085E-01
N     4.04508497187474         2.93892626146237        0.254247517699349    
N     3.64484313710706         3.42273552964344       -0.570786312977592E-01
N     3.18711994874345         3.85256621387895       -0.193879926097362E-01
N     2.67913397489498         4.22163962751008        0.333032764982198E-02
N     2.12889645782536         4.52413526233010        0.682202779217500E-01
N     1.54508497187474         4.75528258147577       -0.112039335332217E-01
N    0.936906572928624         4.91143625364344       -0.111111577745939    
N    0.313952597646568         4.99013364214136        0.159271609381121    
N   -0.313952597646567         4.99013364214136       -0.739931261865866E-01
N   -0.936906572928623         4.91143625364344       -0.739931261865866E-01
N    -1.54508497187474         4.75528258147577        0.159271609381121    
N    -2.12889645782536         4.52413526233010       -0.111111577745939    
N    -2.67913397489498         4.22163962751007       -0.112039335332217E-01
N    -3.18711994874345         3.85256621387895        0.682202779217500E-01
N    -3.64484313710706         3.42273552964344        0.333032764982198E-02
N    -4.04508497187474         2.93892626146237       -0.193879926097362E-01
N    -4.38153340021932         2.40876837050858       -0.570786312977592E-01
N    -4.64888242944126         1.84062276342339        0.254247517699349    
N    -4.84291580564315         1.24344943582428        0.579114562381085E-01
N    -4.96057350657239        0.626666167821523        0.124336955575631    
N    -5.00000000000000        0.612323399573677E-15   -0.496287078633211E-01
N    -4.96057350657239       -0.626666167821522        0.110171649541560    
N    -4.84291580564316        -1.24344943582427       -0.496287078633211E-01
N    -4.64888242944126        -1.84062276342339        0.124336955575631    
N    -4.38153340021932        -2.40876837050858        0.579114562381085E-01
N    -4.04508497187474        -2.93892626146236        0.254247517699349    
N    -3.64484313710706        -3.42273552964344       -0.570786312977592E-01
N    -3.18711994874345        -3.85256621387895       -0.193879926097362E-01
N    -2.67913397489498        -4.22163962751008        0.333032764982198E-02
N    -2.12889645782536        -4.52413526233010        0.682202779217500E-01
N    -1.54508497187474        -4.75528258147577       -0.112039335332217E-01
N   -0.936906572928623        -4.91143625364344       -0.111111577745939    
N   -0.313952597646566        -4.99013364214136        0.159271609381121    
N    0.313952597646564        -4.99013364214136       -0.739931261865866E-01
N    0.936906572928621        -4.91143625364344       -0.739931261865866E-01
N     1.54508497187474        -4.75528258147577        0.159271609381121    
N     2.12889645782536        -4.52413526233010       -0.111111577745939    
N     2.67913397489498        -4.22163962751008       -0.112039335332217E-01
N     3.18711994874345        -3.85256621387895        0.682202779217500E-01
N     3.64484313710706        -3.42273552964344        0.333032764982198E-02
N     4.04508497187474        -2.93892626146237       -0.193879926097362E-01
N     4.38153340021932        -2.40876837050858       -0.570786312977592E-01
N     4.64888242944126        -1.84062276342339        0.254247517699349    
N     4.84291580564315        -1.24344943582428        0.579114562381085E-01
N     4.96057350657239       -0.626666167821523        0.124336955575631    
N     5.00000000000000       -0.122464679914735E-14   -0.496287078633211E-01
          50

N     4.96057350657239        0.626666167821521        0.738145795203946E-01
N     4.84291580564316         1.24344943582427       -0.850475447080531E-01
N     4.64888242944126         1.84062276342339        0.147776749833547    
N     4.38153340021932         2.40876837050858        0.897431968278869E-01
N     4.04508497187474         2.93892626146237        0.246384335077712    
N     3.64484313710706         3.42273552964344       -0.615119325223125E-01
N     3.18711994874345         3.85256621387895       -0.339472582426798E-01
N     2.67913397489498         4.22163962751008        0.634424360434989E-01
N     2.12889645782536         4.52413526233010        0.177241221454332E-01
N     1.54508497187474         4.75528258147577       -0.729578584501412E-02
N    0.936906572928624         4.91143625364344       -0.775922663838033E-01
N    0.313952597646568         4.99013364214136        0.122602513705834    
N   -0.313952597646567         4.99013364214136       -0.591858556922479E-01
N   -0.936906572928623         4.91143625364344       -0.591858556922479E-01
N    -1.54508497187474         4.75528258147577        0.122602513705834    
N    -2.12889645782536         4.52413526233010       -0.775922663838033E-01
N    -2.67913397489498         4.22163962751007       -0.729578584501412E-02
N    -3.18711994874345         3.85256621387895        0.177241221454332E-01
N    -3.64484313710706         3.42273552964344        0.634424360434989E-01
N    -4.04508497187474         2.93892626146237       -0.339472582426798E-01
N    -4.38153340021932         2.40876837050858       -0.615119325223125E-01
N    -4.64888242944126         1.84062276342339        0.246384335077712    
N    -4.84291580564315         1.24344943582428        0.897431968278869E-01
N    -4.96057350657239        0.626666167821523        0.147776749833547    
N    -5.00000000000000        0.612323399573677E-15   -0.850475447080531E-01
N    -4.96057350657239       -0.626666167821522        0.738145795203946E-01
N    -4.84291580564316        -1.24344943582427       -0.850475447080531E-01
N    -4.64888242944126        -1.84062276342339        0.147776749833547    
N    -4.38153340021932        -2.40876837050858        0.897431968278869E-01
N    -4.04508497187474        -2.93892626146236        0.246384335077712    
N    -3.64484313710706        -3.42273552964344       -0.615119325223125E-01
N    -3.18711994874345        -3.85256621387895       -0.339472582426798E-01
N    -2.67913397489498        -4.22163962751008        0.634424360434989E-01
N    -2.12889645782536        -4.52413526233010        0.177241221454332E-01
N    -1.54508497187474        -4.75528258147577       -0.729578584501412E-02
N   -0.936906572928623        -4.91143625364344       -0.775922663838033E-01
N   -0.313952597646566        -4.99013364214136        0.122602513705834    
N    0.313952597646564        -4.99013364214136       -0.591858556922479E-01
N    0.936906572928621        -4.91143625364344       -0.591858556922479E-01
N     1.54508497187474        -4.75528258147577        0.122602513705834    
N     2.12889645782536        -4.52413526233010       -0.775922663838033E-01
N     2.67913397489498        -4.22163962751008       -0.729578584501412E-02
N     3.18711994874345        -3.85256621387895        0.177241221454332E-01
N     3.64484313710706        -3.42273552964344        0.634424360434989E-01
N     4.04508497187474        -2.93892626146237       -0.339472582426798E-01
N     4.38153340021932        -2.40876837050858       -0.615119325223125E-01
N     4.64888242944126        -1.84062276342339        0.246384335077712    
N     4.84291580564315        -1.24344943582428        0.897431968278869E-01
N     4.96057350657239       -0.626666167821523        0.147776749833547    
N     5.00000000000000       -0.122464679914735E-14   -0.850475447080531E-01
          50

N     4.96057350657239        0.626666167821521        0.249367197263778E-01
N     4.84291580564316         1.24344943582427       -0.104983563692814    
N     4.64888242944126         1.84062276342339        0.159739763014976    
N     4.38153340021932         2.40876837050858        0.130004851450184    
N     4.04508497187474         2.93892626146237        0.220135961246099    
N     3.64484313710706         3.42273552964344       -0.526682314892497E-01
N     3.18711994874345         3.85256621387895       -0.457066365884387E-01
N     2.67913397489498         4.22163962751008        0.117880290971756    
N     2.12889645782536         4.52413526233010       -0.319745191585058E-01
N     1.54508497187474         4.75528258147577       -0.514814943000612E-02
N    0.936906572928624         4.91143625364344       -0.333817772366428E-01
N    0.313952597646568         4.99013364214136        0.708155554799148E-01
N   -0.313952597646567         4.99013364214136       -0.371819044304643E-01
N   -0.936906572928623         4.91143625364344       -0.371819044304643E-01
N    -1.54508497187474         4.75528258147577        0.708155554799148E-01
N    -2.12889645782536         4.52413526233010       -0.333817772366428E-01
N    -2.67913397489498         4.22163962751007       -0.514814943000612E-02
N    -3.18711994874345         3.85256621387895       -0.319745191585058E-01
N    -3.64484313710706         3.42273552964344        0.117880290971756    
N    -4.04508497187474         2.93892626146237       -0.457066365884387E-01
N    -4.38153340021932         2.40876837050858       -0.526682314892497E-01
N    -4.64888242944126         1.84062276342339        0.220135961246099    
N    -4.84291580564315         1.24344943582428        0.130004851450184    
N    -4.96057350657239        0.626666167821523        0.159739763014976    
N    -5.00000000000000        0.612323399573677E-15   -0.104983563692814    
N    -4.96057350657239       -0.626666167821522        0.249367197263778E-01
N    -4.84291580564316        -1.24344943582427       -0.104983563692814    
N    -4.64888242944126        -1.84062276342339        0.159739763014976    
N    -4.38153340021932        -2.40876837050858        0.130004851450184    
N    -4.04508497187474        -2.93892626146236        0.220135961246099    
N    -3.64484313710706        -3.42273552964344       -0.526682314892497E-01
N    -3.18711994874345        -3.85256621387895       -0.457066365884387E-01
N    -2.67913397489498        -4.22163962751008        0.117880290971756    
N    -2.12889645782536        -4.52413526233010       -0.319745191585058E-01
N    -1.54508497187474        -4.75528258147577       -0.514814943000612E-02
N   -0.936906572928623        -4.91143625364344       -0.333817772366428E-01
N   -0.313952597646566        -4.99013364214136        0.708155554799148E-01
N    0.313952597646564        -4.99013364214136       -0.371819044304643E-01
N    0.936906572928621        -4.91143625364344       -0.371819044304643E-01
N     1.54508497187474        -4.75528258147577        0.708155554799148E-01
N     2.12889645782536        -4.52413526233010       -0.333817772366428E-01
N     2.67913397489498        -4.22163962751008       -0.514814943000612E-02
N     3.18711994874345        -3.85256621387895       -0.319745191585058E-01
N     3.64484313710706        -3.42273552964344        0.117880290971756    
N     4.04508497187474        -2.93892626146237       -0.457066365884387E-01
N     4.38153340021932        -2.40876837050858       -0.526682314892497E-01
N     4.64888242944126        -1.84062276342339        0.220135961246099    
N     4.84291580564315        -1.24344943582428        0.130004851450184    
N     4.96057350657239       -0.626666167821523        0.159739763014976    
N     5.00000000000000       -0.122464679914735E-14   -0.104983563692814    
          50

N     4.96057350657239        0.626666167821521       -0.341611735625510E-01
N     4.84291580564316         1.24344943582427       -0.109312079551070    
N     4.64888242944126         1.84062276342339        0.160070782221543    
N     4.38153340021932         2.40876837050858        0.174942242905300    
N     4.04508497187474         2.93892626146237        0.179519548701135    
N     3.64484313710706         3.42273552964344       -0.327356016677848E-01
N     3.18711994874345         3.85256621387895       -0.512471009971946E-01
N     2.67913397489498         4.22163962751008        0.159907971839859    
N     2.12889645782536         4.52413526233010       -0.747016615617237E-01
N     1.54508497187474         4.75528258147577       -0.514738591094935E-02
N    0.936906572928624         4.91143625364344        0.160553820304259E-01
N    0.313952597646568         4.99013364214136        0.106290612433593E-01
N   -0.313952597646567         4.99013364214136       -0.109005724716268E-01
N   -0.936906572928623         4.91143625364344       -0.109005724716268E-01
N    -1.54508497187474         4.75528258147577        0.106290612433593E-01
N    -2.12889645782536         4.52413526233010        0.160553820304259E-01
N    -2.67913397489498         4.22163962751007       -0.514738591094935E-02
N    -3.18711994874345         3.85256621387895       -0.747016615617237E-01
N    -3.64484313710706         3.42273552964344        0.159907971839859    
N    -4.04508497187474         2.93892626146237       -0.512471009971946E-01
N    -4.38153340021932         2.40876837050858       -0.327356016677848E-01
N    -4.64888242944126         1.84062276342339        0.179519548701135    
N    -4.84291580564315         1.24344943582428        0.174942242905300    
N    -4.96057350657239        0.626666167821523        0.160070782221543    
N    -5.00000000000000        0.612323399573677E-15   -0.109312079551070    
N    -4.96057350657239       -0.626666167821522       -0.341611735625510E-01
N    -4.84291580564316        -1.24344943582427       -0.109312079551070    
N    -4.64888242944126        -1.84062276342339        0.160070782221543    
N    -4.38153340021932        -2.40876837050858        0.174942242905300    
N    -4.04508497187474        -2.93892626146236        0.179519548701135    
N    -3.64484313710706        -3.42273552964344       -0.327356016677848E-01
N    -3.18711994874345        -3.85256621387895       -0.512471009971946E-01
N    -2.67913397489498        -4.22163962751008        0.159907971839859    
N    -2.12889645782536        -4.52413526233010       -0.747016615617237E-01
N    -1.54508497187474        -4.75528258147577       -0.514738591094935E-02
N   -0.936906572928623        -4.91143625364344        0.160553820304259E-01
N   -0.313952597646566        -4.99013364214136        0.106290612433593E-01
N    0.313952597646564        -4.99013364214136       -0.109005724716268E-01
N    0.936906572928621        -4.91143625364344       -0.109005724716268E-01
N     1.54508497187474        -4.75528258147577        0.106290612433593E-01
N     2.12889645782536        -4.52413526233010        0.160553820304259E-01
N     2.67913397489498        -4.22163962751008       -0.514738591094935E-02
N     3.18711994874345        -3.85256621387895       -0.747016615617237E-01
N     3.64484313710706        -3.42273552964344        0.159907971839859    
N     4.04508497187474        -2.93892626146237       -0.512471009971946E-01
N     4.38153340021932        -2.40876837050858       -0.327356016677848E-01
N     4.64888242944126        -1.84062276342339        0.179519548701135    
N     4.84291580564315        -1.24344943582428        0.174942242905300    
N     4.96057350657239       -0.626666167821523        0.160070782221543    
N     5.00000000000000       -0.122464679914735E-14   -0.109312079551070    
          50

N     4.96057350657239        0.626666167821521       -0.991399214728865E-01
N     4.84291580564316         1.24344943582427       -0.100004383062375    
N     4.64888242944126         1.84062276342339        0.150333207921268    
N     4.38153340021932         2.40876837050858        0.219408185785743    
N     4.04508497187474         2.93892626146237        0.130311754809977    
N     3.64484313710706         3.42273552964344       -0.510306330451835E-02
N     3.18711994874345         3.85256621387895       -0.476953114079703E-01
N     2.67913397489498         4.22163962751008        0.184294285674756    
N     2.12889645782536         4.52413526233010       -0.105408530483392    
N     1.54508497187474         4.75528258147577       -0.703111413550857E-02
N    0.936906572928624         4.91143625364344        0.644259597785112E-01
N    0.313952597646568         4.99013364214136       -0.501979694227453E-01
N   -0.313952597646567         4.99013364214136        0.162369385826948E-01
N   -0.936906572928623         4.91143625364344        0.162369385826948E-01
N    -1.54508497187474         4.75528258147577       -0.501979694227453E-01
N    -2.12889645782536         4.52413526233010        0.644259597785112E-01
N    -2.67913397489498         4.22163962751007       -0.703111413550857E-02
N    -3.18711994874345         3.85256621387895       -0.105408530483392    
N    -3.64484313710706         3.42273552964344        0.184294285674756    
N    -4.04508497187474         2.93892626146237       -0.476953114079703E-01
N    -4.38153340021932         2.40876837050858       -0.510306330451835E-02
N    -4.64888242944126         1.84062276342339        0.130311754809977    
N    -4.84291580564315         1.24344943582428        0.219408185785743    
N    -4.96057350657239        0.626666167821523        0.150333207921268    
N    -5.00000000000000        0.612323399573677E-15   -0.100004383062375    
N    -4.96057350657239       -0.626666167821522       -0.991399214728865E-01
N    -4.84291580564316        -1.24344943582427       -0.100004383062375    
N    -4.64888242944126        -1.84062276342339        0.150333207921268    
N    -4.38153340021932        -2.40876837050858        0.219408185785743    
N    -4.04508497187474        -2.93892626146236        0.130311754809977    
N    -3.64484313710706        -3.42273552964344       -0.510306330451835E-02
N    -3.18711994874345        -3.85256621387895       -0.476953114079703E-01
N    -2.67913397489498        -4.22163962751008        0.184294285674756    
N    -2.12889645782536        -4.52413526233010       -0.105408530483392    
N    -1.54508497187474        -4.75528258147577       -0.703111413550857E-02
N   -0.936906572928623        -4.91143625364344        0.644259597785112E-01
N   -0.313952597646566        -4.99013364214136       -0.501979694227453E-01
N    0.313952597646564        -4.99013364214136        0.162369385826948E-01
N    0.936906572928621        -4.91143625364344        0.162369385826948E-01
N     1.54508497187474        -4.75528258147577       -0.501979694227453E-01
N     2.12889645782536        -4.52413526233010        0.644259597785112E-01
N     2.67913397489498        -4.22163962751008       -0.703111413550857E-02
N     3.18711994874345        -3.85256621387895       -0.105408530483392    
N     3.64484313710706        -3.42273552964344        0.184294285674756    
N     4.04508497187474        -2.93892626146237       -0.476953114079703E-01
N     4.38153340021932        -2.40876837050858       -0.510306330451835E-02
N     4.64888242944126        -1.84062276342339        0.130311754809977    
N     4.84291580564315        -1.24344943582428        0.219408185785743    
N     4.96057350657239       -0.626666167821523        0.150333207921268    
N     5.00000000000000       -0.122464679914735E-14   -0.100004383062375    
          50

N     4.96057350657239        0.626666167821521       -0.164120800148218    
N     4.84291580564316         1.24344943582427       -0.807395772849331E-01
N     4.64888242944126         1.84062276342339        0.133405602724904    
N     4.38153340021932         2.40876837050858        0.257559161192224    
N     4.04508497187474         2.93892626146237        0.792548773780542E-01
N     3.64484313710706         3.42273552964344        0.262478769610574E-01
N     3.18711994874345         3.85256621387895       -0.332899960349823E-01
N     2.67913397489498         4.22163962751008        0.188039363011223    
N     2.12889645782536         4.52413526233010       -0.120768009261473    
N     1.54508497187474         4.75528258147577       -0.995777610566122E-02
N    0.936906572928624         4.91143625364344        0.105423220465844    
N    0.313952597646568         4.99013364214136       -0.103864242633374    
N   -0.313952597646567         4.99013364214136        0.407498996612234E-01
N   -0.936906572928623         4.91143625364344        0.407498996612234E-01
N    -1.54508497187474         4.75528258147577       -0.103864242633374    
N    -2.12889645782536         4.52413526233010        0.105423220465844    
N    -2.67913397489498         4.22163962751007       -0.995777610566122E-02
N    -3.18711994874345         3.85256621387895       -0.120768009261473    
N    -3.64484313710706         3.42273552964344        0.188039363011223    
N    -4.04508497187474         2.93892626146237       -0.332899960349823E-01
N    -4.38153340021932         2.40876837050858        0.262478769610574E-01
N    -4.64888242944126         1.84062276342339        0.792548773780542E-01
N    -4.84291580564315         1.24344943582428        0.257559161192224    
N    -4.96057350657239        0.626666167821523        0.133405602724904    
N    -5.00000000000000        0.612323399573677E-15   -0.807395772849331E-01
N    -4.96057350657239       -0.626666167821522       -0.164120800148218    
N    -4.84291580564316        -1.24344943582427       -0.807395772849331E-01
N    -4.64888242944126        -1.84062276342339        0.133405602724904    
N    -4.38153340021932        -2.40876837050858        0.257559161192224    
N    -4.04508497187474        -2.93892626146236        0.792548773780542E-01
N    -3.64484313710706        -3.42273552964344        0.262478769610574E-01
N    -3.18711994874345        -3.85256621387895       -0.332899960349823E-01
N    -2.67913397489498        -4.22163962751008        0.188039363011223    
N    -2.12889645782536        -4.52413526233010       -0.120768009261473    
N    -1.54508497187474        -4.75528258147577       -0.995777610566122E-02
N   -0.936906572928623        -4.91143625364344        0.105423220465844    
N   -0.313952597646566        -4.99013364214136       -0.103864242633374    
N    0.313952597646564        -4.99013364214136        0.407498996612234E-01
N    0.936906572928621        -4.91143625364344        0.407498996612234E-01
N     1.54508497187474        -4.75528258147577       -0.103864242633374    
N     2.12889645782536        -4.52413526233010        0.105423220465844    
N     2.67913397489498        -4.22163962751008       -0.995777610566122E-02
N     3.18711994874345        -3.85256621387895       -0.120768009261473    
N     3.64484313710706        -3.42273552964344        0.188039363011223    
N     4.04508497187474        -2.93892626146237       -0.332899960349823E-01
N     4.38153340021932        -2.40876837050858        0.262478769610574E-01
N     4.64888242944126        -1.84062276342339        0.792548773780542E-01
N     4.84291580564315        -1.24344943582428        0.257559161192224    
N     4.96057350657239       -0.626666167821523        0.133405602724904    
N     5.00000000000000       -0.122464679914735E-14   -0.807395772849331E-01
          50

N     4.96057350657239        0.626666167821521       -0.222440820506506    
N     4.84291580564316         1.24344943582427       -0.562687932357110E-01
N     4.64888242944126         1.84062276342339        0.112879515605827    
N     4.38153340021932         2.40876837050858        0.283696861080790    
N     4.04508497187474         2.93892626146237        0.331356661770856E-01
N     3.64484313710706         3.42273552964344        0.573930370577434E-01
N     3.18711994874345         3.85256621387895       -0.779566952985683E-02
N     2.67913397489498         4.22163962751008        0.170812678195249    
N     2.12889645782536         4.52413526233010       -0.119523946237985    
N     1.54508497187474         4.75528258147577       -0.126902601157814E-01
N    0.936906572928624         4.91143625364344        0.133567566522532    
N    0.313952597646568         4.99013364214136       -0.143530712066708    
N   -0.313952597646567         4.99013364214136        0.595444668000649E-01
N   -0.936906572928623         4.91143625364344        0.595444668000649E-01
N    -1.54508497187474         4.75528258147577       -0.143530712066708    
N    -2.12889645782536         4.52413526233010        0.133567566522532    
N    -2.67913397489498         4.22163962751007       -0.126902601157814E-01
N    -3.18711994874345         3.85256621387895       -0.119523946237985    
N    -3.64484313710706         3.42273552964344        0.170812678195249    
N    -4.04508497187474         2.93892626146237       -0.779566952985683E-02
N    -4.38153340021932         2.40876837050858        0.573930370577434E-01
N    -4.64888242944126         1.84062276342339        0.331356661770856E-01
N    -4.84291580564315         1.24344943582428        0.283696861080790    
N    -4.96057350657239        0.626666167821523        0.112879515605827    
N    -5.00000000000000        0.612323399573677E-15   -0.562687932357110E-01
N    -4.96057350657239       -0.626666167821522       -0.222440820506506    
N    -4.84291580564316        -1.24344943582427       -0.562687932357110E-01
N    -4.64888242944126        -1.84062276342339        0.112879515605827    
N    -4.38153340021932        -2.40876837050858        0.283696861080790    
N    -4.04508497187474        -2.93892626146236        0.331356661770856E-01
N    -3.64484313710706        -3.42273552964344        0.573930370577434E-01
N    -3.18711994874345        -3.85256621387895       -0.779566952985683E-02
N    -2.67913397489498        -4.22163962751008        0.170812678195249    
N    -2.12889645782536        -4.52413526233010       -0.119523946237985    
N    -1.54508497187474        -4.75528258147577       -0.126902601157814E-01
N   -0.936906572928623        -4.91143625364344        0.133567566522532    
N   -0.313952597646566        -4.99013364214136       -0.143530712066708    
N    0.313952597646564        -4.99013364214136        0.595444668000649E-01
N    0.936906572928621        -4.91143625364344        0.595444668000649E-01
N     1.54508497187474        -4.75528258147577       -0.143530712066708    
N     2.12889645782536        -4.52413526233010        0.133567566522532    
N     2.67913397489498        -4.22163962751008       -0.126902601157814E-01
N     3.18711994874345        -3.85256621387895       -0.119523946237985    
N     3.64484313710706        -3.42273552964344        0.170812678195249    
N     4.04508497187474        -2.93892626146237       -0.779566952985683E-02
N     4.38153340021932        -2.40876837050858        0.573930370577434E-01
N     4.64888242944126        -1.84062276342339        0.331356661770856E-01
N     4.84291580564315        -1.24344943582428        0.283696861080790    
N     4.96057350657239       -0.626666167821523        0.112879515605827    
N     5.00000000000000       -0.122464679914735E-14   -0.562687932357110E-01
          50

N     4.96057350657239        0.626666167821521       -0.267554560355920    
N     4.84291580564316         1.24344943582427       -0.316355241047011E-01
N     4.64888242944126         1.84062276342339        0.923643636637718E-01
N     4.38153340021932         2.40876837050858        0.293127992627906    
N     4.04508497187474         2.93892626146237       -0.213149957111512E-02
N     3.64484313710706         3.42273552964344        0.850527349067923E-01
N     3.18711994874345         3.85256621387895        0.273118483572367E-01
N     2.67913397489498         4.22163962751008        0.135037746901740    
N     2.12889645782536         4.52413526233010       -0.102555557210555    
N     1.54508497187474         4.75528258147577       -0.138597205613606E-01
N    0.936906572928624         4.91143625364344        0.144959058726954    
N    0.313952597646568         4.99013364214136       -0.164200887783683    
N   -0.313952597646567         4.99013364214136        0.703067242249723E-01
N   -0.936906572928623         4.91143625364344        0.703067242249723E-01
N    -1.54508497187474         4.75528258147577       -0.164200887783683    
N    -2.12889645782536         4.52413526233010        0.144959058726954    
N    -2.67913397489498         4.22163962751007       -0.138597205613606E-01
N    -3.18711994874345         3.85256621387895       -0.102555557210555    
N    -3.64484313710706         3.42273552964344        0.135037746901740    
N    -4.04508497187474         2.93892626146237        0.273118483572367E-01
N    -4.38153340021932         2.40876837050858        0.850527349067923E-01
N    -4.64888242944126         1.84062276342339       -0.213149957111512E-02
N    -4.84291580564315         1.24344943582428        0.293127992627906    
N    -4.96057350657239        0.626666167821523        0.923643636637718E-01
N    -5.00000000000000        0.612323399573677E-15   -0.316355241047011E-01
N    -4.96057350657239       -0.626666167821522       -0.267554560355920    
N    -4.84291580564316        -1.24344943582427       -0.316355241047011E-01
N    -4.64888242944126        -1.84062276342339        0.923643636637718E-01
N    -4.38153340021932        -2.40876837050858        0.293127992627906    
N    -4.04508497187474        -2.93892626146236       -0.213149957111512E-02
N    -3.64484313710706        -3.42273552964344        0.850527349067923E-01
N    -3.18711994874345        -3.85256621387895        0.273118483572367E-01
N    -2.67913397489498        -4.22163962751008        0.135037746901740    
N    -2.12889645782536        -4.52413526233010       -0.102555557210555    
N    -1.54508497187474        -4.75528258147577       -0.138597205613606E-01
N   -0.936906572928623        -4.91143625364344        0.144959058726954    
N   -0.313952597646566        -4.99013364214136       -0.164200887783683    
N    0.313952597646564        -4.99013364214136        0.703067242249723E-01
N    0.936906572928621        -4.91143625364344        0.703067242249723E-01
N     1.54508497187474        -4.75528258147577       -0.164200887783683    
N     2.12889645782536        -4.52413526233010        0.144959058726954    
N     2.67913397489498        -4.22163962751008       -0.138597205613606E-01
N     3.18711994874345        -3.85256621387895       -0.102555557210555    
N     3.64484313710706        -3.42273552964344        0.135037746901740    
N     4.04508497187474        -2.93892626146237        0.273118483572367E-01
N     4.38153340021932        -2.40876837050858        0.850527349067923E-01
N     4.64888242944126        -1.84062276342339       -0.213149957111512E-02
N     4.84291580564315        -1.24344943582428        0.293127992627906    
N     4.96057350657239       -0.626666167821523        0.923643636637718E-01
N     5.00000000000000       -0.122464679914735E-14   -0.316355241047011E-01
          50

N     4.96057350657239        0.626666167821521       -0.293949758389106    
N     4.84291580564316         1.24344943582427       -0.113766442796506E-01
N     4.64888242944126         1.84062276342339        0.748188957267146E-01
N     4.38153340021932         2.40876837050858        0.282910801448480    
N     4.04508497187474         2.93892626146237       -0.222874571769273E-01
N     3.64484313710706         3.42273552964344        0.107026438068342    
N     3.18711994874345         3.85256621387895        0.689291960420929E-01
N     2.67913397489498         4.22163962751008        0.856069710470050E-01
N     2.12889645782536         4.52413526233010       -0.726588172378579E-01
N     1.54508497187474         4.75528258147577       -0.122616446039367E-01
N    0.936906572928624         4.91143625364344        0.137837118372148    
N    0.313952597646568         4.99013364214136       -0.163361956879391    
N   -0.313952597646567         4.99013364214136        0.717919786675331E-01
N   -0.936906572928623         4.91143625364344        0.717919786675331E-01
N    -1.54508497187474         4.75528258147577       -0.163361956879391    
N    -2.12889645782536         4.52413526233010        0.137837118372148    
N    -2.67913397489498         4.22163962751007       -0.122616446039367E-01
N    -3.18711994874345         3.85256621387895       -0.726588172378579E-01
N    -3.64484313710706         3.42273552964344        0.856069710470050E-01
N    -4.04508497187474         2.93892626146237        0.689291960420929E-01
N    -4.38153340021932         2.40876837050858        0.107026438068342    
N    -4.64888242944126         1.84062276342339       -0.222874571769273E-01
N    -4.84291580564315         1.24344943582428        0.282910801448480    
N    -4.96057350657239        0.626666167821523        0.748188957267146E-01
N    -5.00000000000000        0.612323399573677E-15   -0.113766442796506E-01
N    -4.96057350657239       -0.626666167821522       -0.293949758389106    
N    -4.84291580564316        -1.24344943582427       -0.113766442796506E-01
N    -4.64888242944126        -1.84062276342339        0.748188957267146E-01
N    -4.38153340021932        -2.40876837050858        0.282910801448480    
N    -4.04508497187474        -2.93892626146236       -0.222874571769273E-01
N    -3.64484313710706        -3.42273552964344        0.107026438068342    
N    -3.18711994874345        -3.85256621387895        0.689291960420929E-01
N    -2.67913397489498        -4.22163962751008        0.856069710470050E-01
N    -2.12889645782536        -4.52413526233010       -0.726588172378579E-01
N    -1.54508497187474        -4.75528258147577       -0.122616446039367E-01
N   -0.936906572928623        -4.91143625364344        0.137837118372148    
N   -0.313952597646566        -4.99013364214136       -0.163361956879391    
N    0.313952597646564        -4.99013364214136        0.717919786675331E-01
N    0.936906572928621        -4.91143625364344        0.717919786675331E-01
N     1.54508497187474        -4.75528258147577       -0.163361956879391    
N     2.12889645782536        -4.52413526233010        0.137837118372148    
N     2.67913397489498        -4.22163962751008       -0.122616446039367E-01
N     3.18711994874345        -3.85256621387895       -0.726588172378579E-01
N     3.64484313710706        -3.42273552964344        0.856069710470050E-01
N     4.04508497187474        -2.93892626146237        0.689291960420929E-01
N     4.38153340021932        -2.40876837050858        0.107026438068342    
N     4.64888242944126        -1.84062276342339       -0.222874571769273E-01
N     4.84291580564315        -1.24344943582428        0.282910801448480    
N     4.96057350657239       -0.626666167821523        0.748188957267146E-01
N     5.00000000000000       -0.122464679914735E-14   -0.113766442796506E-01
          50

N     4.96057350657239        0.626666167821521       -0.297941257879266    
N     4.84291580564316         1.24344943582427        0.117028430557466E-02
N     4.64888242944126         1.84062276342339        0.620229638138524E-01
N     4.38153340021932         2.40876837050858        0.252372064325969    
N     4.04508497187474         2.93892626146237       -0.252685829172020E-01
N     3.64484313710706         3.42273552964344        0.122412930440951    
N     3.18711994874345         3.85256621387895        0.112677706845661    
N     2.67913397489498         4.22163962751008        0.292611690782290E-01
N     2.12889645782536         4.52413526233010       -0.340850116977995E-01
N     1.54508497187474         4.75528258147577       -0.713011923185471E-02
N    0.936906572928624         4.91143625364344        0.112866157857663    
N    0.313952597646568         4.99013364214136       -0.141302428590879    
N   -0.313952597646567         4.99013364214136        0.639734947094674E-01
N   -0.936906572928623         4.91143625364344        0.639734947094674E-01
N    -1.54508497187474         4.75528258147577       -0.141302428590879    
N    -2.12889645782536         4.52413526233010        0.112866157857663    
N    -2.67913397489498         4.22163962751007       -0.713011923185471E-02
N    -3.18711994874345         3.85256621387895       -0.340850116977995E-01
N    -3.64484313710706         3.42273552964344        0.292611690782290E-01
N    -4.04508497187474         2.93892626146237        0.112677706845661    
N    -4.38153340021932         2.40876837050858        0.122412930440951    
N    -4.64888242944126         1.84062276342339       -0.252685829172020E-01
N    -4.84291580564315         1.24344943582428        0.252372064325969    
N    -4.96057350657239        0.626666167821523        0.620229638138524E-01
N    -5.00000000000000        0.612323399573677E-15    0.117028430557466E-02
N    -4.96057350657239       -0.626666167821522       -0.297941257879266    
N    -4.84291580564316        -1.24344943582427        0.117028430557466E-02
N    -4.64888242944126        -1.84062276342339        0.620229638138524E-01
N    -4.38153340021932        -2.40876837050858        0.252372064325969    
N    -4.04508497187474        -2.93892626146236       -0.252685829172020E-01
N    -3.64484313710706        -3.42273552964344        0.122412930440951    
N    -3.18711994874345        -3.85256621387895        0.112677706845661    
N    -2.67913397489498        -4.22163962751008        0.292611690782290E-01
N    -2.12889645782536        -4.52413526233010       -0.340850116977995E-01
N    -1.54508497187474        -4.75528258147577       -0.713011923185471E-02
N   -0.936906572928623        -4.91143625364344        0.112866157857663    
N   -0.313952597646566        -4.99013364214136       -0.141302428590879    
N    0.313952597646564        -4.99013364214136        0.639734947094674E-01
N    0.936906572928621        -4.91143625364344        0.639734947094674E-01
N     1.54508497187474        -4.75528258147577       -0.141302428590879    
N     2.12889645782536        -4.52413526233010        0.112866157857663    
N     2.67913397489498        -4.22163962751008       -0.713011923185471E-02
N     3.18711994874345        -3.85256621387895       -0.340850116977995E-01
N     3.64484313710706        -3.42273552964344        0.292611690782290E-01
N     4.04508497187474        -2.93892626146237        0.112677706845661    
N     4.38153340021932        -2.40876837050858        0.122412930440951    
N     4.64888242944126        -1.84062276342339       -0.252685829172020E-01
N     4.84291580564315        -1.24344943582428        0.252372064325969    
N     4.96057350657239       -0.626666167821523        0.620229638138524E-01
N     5.00000000000000       -0.122464679914735E-14    0.117028430557466E-02
          50

N     4.96057350657239        0.626666167821521       -0.278225876177882    
N     4.84291580564316         1.24344943582427        0.434652927896524E-02
N     4.64888242944126         1.84062276342339        0.542790092133526E-01
N     4.38153340021932         2.40876837050858        0.203311549479504    
N     4.04508497187474         2.93892626146237       -0.114327235506528E-01
N     3.64484313710706         3.42273552964344        0.131591120717284    
N     3.18711994874345         3.85256621387895        0.153480410730175    
N     2.67913397489498         4.22163962751008       -0.262849565360992E-01
N     2.12889645782536         4.52413526233010        0.809177470749162E-02
N     1.54508497187474         4.75528258147577        0.166078693448512E-02
N    0.936906572928624         4.91143625364344        0.731012350043298E-01
N    0.313952597646568         4.99013364214136       -0.101064017691650    
N   -0.313952597646567         4.99013364214136        0.480322198017542E-01
N   -0.936906572928623         4.91143625364344        0.480322198017542E-01
N    -1.54508497187474         4.75528258147577       -0.101064017691650    
N    -2.12889645782536         4.52413526233010        0.731012350043298E-01
N    -2.67913397489498         4.22163962751007        0.166078693448512E-02
N    -3.18711994874345         3.85256621387895        0.809177470749162E-02
N    -3.64484313710706         3.42273552964344       -0.262849565360992E-01
N    -4.04508497187474         2.93892626146237        0.153480410730175    
N    -4.38153340021932         2.40876837050858        0.131591120717284    
N    -4.64888242944126         1.84062276342339       -0.114327235506528E-01
N    -4.84291580564315         1.24344943582428        0.203311549479504    
N    -4.96057350657239        0.626666167821523        0.542790092133526E-01
N    -5.00000000000000        0.612323399573677E-15    0.434652927896524E-02
N    -4.96057350657239       -0.626666167821522       -0.278225876177882    
N    -4.84291580564316        -1.24344943582427        0.434652927896524E-02
N    -4.64888242944126        -1.84062276342339        0.542790092133526E-01
N    -4.38153340021932        -2.40876837050858        0.203311549479504    
N    -4.04508497187474        -2.93892626146236       -0.114327235506528E-01
N    -3.64484313710706        -3.42273552964344        0.131591120717284    
N    -3.18711994874345        -3.85256621387895        0.153480410730175    
N    -2.67913397489498        -4.22163962751008       -0.262849565360992E-01
N    -2.12889645782536        -4.52413526233010        0.809177470749162E-02
N    -1.54508497187474        -4.75528258147577        0.166078693448512E-02
N   -0.936906572928623        -4.91143625364344        0.731012350043298E-01
N   -0.313952597646566        -4.99013364214136       -0.101064017691650    
N    0.313952597646564        -4.99013364214136        0.480322198017542E-01
N    0.936906572928621        -4.91143625364344        0.480322198017542E-01
N     1.54508497187474        -4.75528258147577       -0.101064017691650    
N     2.12889645782536        -4.52413526233010        0.731012350043298E-01
N     2.67913397489498        -4.22163962751008        0.166078693448512E-02
N     3.18711994874345        -3.85256621387895        0.809177470749162E-02
N     3.64484313710706        -3.42273552964344       -0.262849565360992E-01
N     4.04508497187474        -2.93892626146237        0.153480410730175    
N     4.38153340021932        -2.40876837050858        0.131591120717284    
N     4.64888242944126        -1.84062276342339       -0.114327235506528E-01
N     4.84291580564315        -1.24344943582428        0.203311549479504    
N     4.96057350657239       -0.626666167821523        0.542790092133526E-01
N     5.00000000000000       -0.122464679914735E-14    0.434652927896524E-02
          50

N     4.96057350657239        0.626666167821521       -0.236116478847554    
N     4.84291580564316         1.24344943582427       -0.163304314945686E-02
N     4.64888242944126         1.84062276342339        0.503937994647146E-01
N     4.38153340021932         2.40876837050858        0.139857111774578    
N     4.04508497187474         2.93892626146237        0.165545068597503E-01
N     3.64484313710706         3.42273552964344        0.135976780566969    
N     3.18711994874345         3.85256621387895        0.186282879543628    
N     2.67913397489498         4.22163962751008       -0.733544391107831E-01
N     2.12889645782536         4.52413526233010        0.486857400582735E-01
N     1.54508497187474         4.75528258147577        0.135079772158521E-01
N    0.936906572928624         4.91143625364344        0.236304842656047E-01
N    0.313952597646568         4.99013364214136       -0.480333662021688E-01
N   -0.313952597646567         4.99013364214136        0.261898081368147E-01
N   -0.936906572928623         4.91143625364344        0.261898081368147E-01
N    -1.54508497187474         4.75528258147577       -0.480333662021688E-01
N    -2.12889645782536         4.52413526233010        0.236304842656047E-01
N    -2.67913397489498         4.22163962751007        0.135079772158521E-01
N    -3.18711994874345         3.85256621387895        0.486857400582735E-01
N    -3.64484313710706         3.42273552964344       -0.733544391107831E-01
N    -4.04508497187474         2.93892626146237        0.186282879543628    
N    -4.38153340021932         2.40876837050858        0.135976780566969    
N    -4.64888242944126         1.84062276342339        0.165545068597503E-01
N    -4.84291580564315         1.24344943582428        0.139857111774578    
N    -4.96057350657239        0.626666167821523        0.503937994647146E-01
N    -5.00000000000000        0.612323399573677E-15   -0.163304314945686E-02
N    -4.96057350657239       -0.626666167821522       -0.236116478847554    
N    -4.84291580564316        -1.24344943582427       -0.163304314945686E-02
N    -4.64888242944126        -1.84062276342339        0.503937994647146E-01
N    -4.38153340021932        -2.40876837050858        0.139857111774578    
N    -4.04508497187474        -2.93892626146236        0.165545068597503E-01
N    -3.64484313710706        -3.42273552964344        0.135976780566969    
N    -3.18711994874345        -3.85256621387895        0.186282879543628    
N    -2.67913397489498        -4.22163962751008       -0.733544391107831E-01
N    -2.12889645782536        -4.52413526233010        0.486857400582735E-01
N    -1.54508497187474        -4.75528258147577        0.135079772158521E-01
N   -0.936906572928623        -4.91143625364344        0.236304842656047E-01
N   -0.313952597646566        -4.99013364214136       -0.480333662021688E-01
N    0.313952597646564        -4.99013364214136        0.261898081368147E-01
N    0.936906572928621        -4.91143625364344        0.261898081368147E-01
N     1.54508497187474        -4.75528258147577       -0.480333662021688E-01
N     2.12889645782536        -4.52413526233010        0.236304842656047E-01
N     2.67913397489498        -4.22163962751008        0.135079772158521E-01
N     3.18711994874345        -3.85256621387895        0.486857400582735E-01
N     3.64484313710706        -3.42273552964344       -0.733544391107831E-01
N     4.04508497187474        -2.93892626146237        0.186282879543628    
N     4.38153340021932        -2.40876837050858        0.135976780566969    
N     4.64888242944126        -1.84062276342339        0.165545068597503E-01
N     4.84291580564315        -1.24344943582428        0.139857111774578    
N     4.96057350657239       -0.626666167821523        0.503937994647146E-01
N     5.00000000000000       -0.122464679914735E-14   -0.163304314945686E-02
          50

N     4.96057350657239        0.626666167821521       -0.175421349008226    
N     4.84291580564316         1.24344943582427       -0.147953266163865E-01
N     4.64888242944126         1.84062276342339        0.479438149187715E-01
N     4.38153340021932         2.40876837050858        0.679856604807741E-01
N     4.04508497187474         2.93892626146237        0.541488312356051E-01
N     3.64484313710706         3.42273552964344        0.137607265955486    
N     3.18711994874345         3.85256621387895        0.206811401997540    
N     2.67913397489498         4.22163962751008       -0.105320157761406    
N     2.12889645782536         4.52413526233010        0.830893037392541E-01
N     1.54508497187474         4.75528258147577        0.271235418436751E-01
N    0.936906572928624         4.91143625364344       -0.290646828215964E-01
N    0.313952597646568         4.99013364214136        0.107733223954799E-01
N   -0.313952597646567         4.99013364214136        0.140769913691442E-02
N   -0.936906572928623         4.91143625364344        0.140769913691442E-02
N    -1.54508497187474         4.75528258147577        0.107733223954799E-01
N    -2.12889645782536         4.52413526233010       -0.290646828215964E-01
N    -2.67913397489498         4.22163962751007        0.271235418436751E-01
N    -3.18711994874345         3.85256621387895        0.830893037392541E-01
N    -3.64484313710706         3.42273552964344       -0.105320157761406    
N    -4.04508497187474         2.93892626146237        0.206811401997540    
N    -4.38153340021932         2.40876837050858        0.137607265955486    
N    -4.64888242944126         1.84062276342339        0.541488312356051E-01
N    -4.84291580564315         1.24344943582428        0.679856604807741E-01
N    -4.96057350657239        0.626666167821523        0.479438149187715E-01
N    -5.00000000000000        0.612323399573677E-15   -0.147953266163865E-01
N    -4.96057350657239       -0.626666167821522       -0.175421349008226    
N    -4.84291580564316        -1.24344943582427       -0.147953266163865E-01
N    -4.64888242944126        -1.84062276342339        0.479438149187715E-01
N    -4.38153340021932        -2.40876837050858        0.679856604807741E-01
N    -4.04508497187474        -2.93892626146236        0.541488312356051E-01
N    -3.64484313710706        -3.42273552964344        0.137607265955486    
N    -3.18711994874345        -3.85256621387895        0.206811401997540    
N    -2.67913397489498        -4.22163962751008       -0.105320157761406    
N    -2.12889645782536        -4.52413526233010        0.830893037392541E-01
N    -1.54508497187474        -4.75528258147577        0.271235418436751E-01
N   -0.936906572928623        -4.91143625364344       -0.290646828215964E-01
N   -0.313952597646566        -4.99013364214136        0.107733223954799E-01
N    0.313952597646564        -4.99013364214136        0.140769913691442E-02
N    0.936906572928621        -4.91143625364344        0.140769913691442E-02
N     1.54508497187474        -4.75528258147577        0.107733223954799E-01
N     2.12889645782536        -4.52413526233010       -0.290646828215964E-01
N     2.67913397489498        -4.22163962751008        0.271235418436751E-01
N     3.18711994874345        -3.85256621387895        0.830893037392541E-01
N     3.64484313710706        -3.42273552964344       -0.105320157761406    
N     4.04508497187474        -2.93892626146237        0.206811401997540    
N     4.38153340021932        -2.40876837050858        0.137607265955486    
N     4.64888242944126        -1.84062276342339        0.541488312356051E-01
N     4.84291580564315        -1.24344943582428        0.679856604807741E-01
N     4.96057350657239       -0.626666167821523        0.479438149187715E-01
N     5.00000000000000       -0.122464679914735E-14   -0.147953266163865E-01
          50

N     4.96057350657239        0.626666167821521       -0.101987442474240    
N     4.84291580564316         1.24344943582427       -0.318101663455130E-01
N     4.64888242944126         1.84062276342339        0.437798777408329E-01
N     4.38153340021932         2.40876837050858       -0.522471831965238E-02
N     4.04508497187474         2.93892626146237        0.956026656423817E-01
N     3.64484313710706         3.42273552964344        0.138633777187690    
N     3.18711994874345         3.85256621387895        0.212252248104242    
N     2.67913397489498         4.22163962751008       -0.117480167990031    
N     2.12889645782536         4.52413526233010        0.107849069347406    
N     1.54508497187474         4.75528258147577        0.407106721248913E-01
N    0.936906572928624         4.91143625364344       -0.779509021910730E-01
N    0.313952597646568         4.99013364214136        0.676389136010744E-01
N   -0.313952597646567         4.99013364214136       -0.230075476651294E-01
N   -0.936906572928623         4.91143625364344       -0.230075476651294E-01
N    -1.54508497187474         4.75528258147577        0.676389136010744E-01
N    -2.12889645782536         4.52413526233010       -0.779509021910730E-01
N    -2.67913397489498         4.22163962751007        0.407106721248913E-01
N    -3.18711994874345         3.85256621387895        0.107849069347406    
N    -3.64484313710706         3.42273552964344       -0.117480167990031    
N    -4.04508497187474         2.93892626146237        0.212252248104242    
N    -4.38153340021932         2.40876837050858        0.138633777187690    
N    -4.64888242944126         1.84062276342339        0.956026656423817E-01
N    -4.84291580564315         1.24344943582428       -0.522471831965238E-02
N    -4.96057350657239        0.626666167821523        0.437798777408329E-01
N    -5.00000000000000        0.612323399573677E-15   -0.318101663455130E-01
N    -4.96057350657239       -0.626666167821522       -0.101987442474240    
N    -4.84291580564316        -1.24344943582427       -0.318101663455130E-01
N    -4.64888242944126        -1.84062276342339        0.437798777408329E-01
N    -4.38153340021932        -2.40876837050858       -0.522471831965238E-02
N    -4.04508497187474        -2.93892626146236        0.956026656423817E-01
N    -3.64484313710706        -3.42273552964344        0.138633777187690    
N    -3.18711994874345        -3.85256621387895        0.212252248104242    
N    -2.67913397489498        -4.22163962751008       -0.117480167990031    
N    -2.12889645782536        -4.52413526233010        0.107849069347406    
N    -1.54508497187474        -4.75528258147577        0.407106721248913E-01
N   -0.936906572928623        -4.91143625364344       -0.779509021910730E-01
N   -0.313952597646566        -4.99013364214136        0.676389136010744E-01
N    0.313952597646564        -4.99013364214136       -0.230075476651294E-01
N    0.936906572928621        -4.91143625364344       -0.230075476651294E-01
N     1.54508497187474        -4.75528258147577        0.676389136010744E-01
N     2.12889645782536        -4.52413526233010       -0.779509021910730E-01
N     2.67913397489498        -4.22163962751008        0.407106721248913E-01
N     3.18711994874345        -3.85256621387895        0.107849069347406    
N     3.64484313710706        -3.42273552964344       -0.117480167990031    
N     4.04508497187474        -2.93892626146237        0.212252248104242    
N     4.38153340021932        -2.40876837050858        0.138633777187690    
N     4.64888242944126        -1.84062276342339        0.956026656423817E-01
N     4.84291580564315        -1.24344943582428       -0.522471831965238E-02
N     4.96057350657239       -0.626666167821523        0.437798777408329E-01
N     5.00000000000000       -0.122464679914735E-14   -0.318101663455130E-01
          50

N     4.96057350657239        0.626666167821521       -0.229752407972702E-01
N     4.84291580564316         1.24344943582427       -0.486078153940959E-01
N     4.64888242944126         1.84062276342339        0.346858515440833E-01
N     4.38153340021932         2.40876837050858       -0.725057969232051E-01
N     4.04508497187474         2.93892626146237        0.134783834709978    
N     3.64484313710706         3.42273552964344        0.140814623928174    
N     3.18711994874345         3.85256621387895        0.201743799474194    
N     2.67913397489498         4.22163962751008       -0.107677424498665    
N     2.12889645782536         4.52413526233010        0.121054566826528    
N     1.54508497187474         4.75528258147577        0.522468742318745E-01
N    0.936906572928624         4.91143625364344       -0.116375451533597    
N    0.313952597646568         4.99013364214136        0.115164873828591    
N   -0.313952597646567         4.99013364214136       -0.438403157952266E-01
N   -0.936906572928623         4.91143625364344       -0.438403157952266E-01
N    -1.54508497187474         4.75528258147577        0.115164873828591    
N    -2.12889645782536         4.52413526233010       -0.116375451533597    
N    -2.67913397489498         4.22163962751007        0.522468742318745E-01
N    -3.18711994874345         3.85256621387895        0.121054566826528    
N    -3.64484313710706         3.42273552964344       -0.107677424498665    
N    -4.04508497187474         2.93892626146237        0.201743799474194    
N    -4.38153340021932         2.40876837050858        0.140814623928174    
N    -4.64888242944126         1.84062276342339        0.134783834709978    
N    -4.84291580564315         1.24344943582428       -0.725057969232051E-01
N    -4.96057350657239        0.626666167821523        0.346858515440833E-01
N    -5.00000000000000        0.612323399573677E-15   -0.486078153940959E-01
N    -4.96057350657239       -0.626666167821522       -0.229752407972702E-01
N    -4.84291580564316        -1.24344943582427       -0.486078153940959E-01
N    -4.64888242944126        -1.84062276342339        0.346858515440833E-01
N    -4.38153340021932        -2.40876837050858       -0.725057969232051E-01
N    -4.04508497187474        -2.93892626146236        0.134783834709978    
N    -3.64484313710706        -3.42273552964344        0.140814623928174    
N    -3.18711994874345        -3.85256621387895        0.201743799474194    
N    -2.67913397489498        -4.22163962751008       -0.107677424498665    
N    -2.12889645782536        -4.52413526233010        0.121054566826528    
N    -1.54508497187474        -4.75528258147577        0.522468742318745E-01
N   -0.936906572928623        -4.91143625364344       -0.116375451533597    
N   -0.313952597646566        -4.99013364214136        0.115164873828591    
N    0.313952597646564        -4.99013364214136       -0.438403157952266E-01
N    0.936906572928621        -4.91143625364344       -0.438403157952266E-01
N     1.54508497187474        -4.75528258147577        0.115164873828591    
N     2.12889645782536        -4.52413526233010       -0.116375451533597    
N     2.67913397489498        -4.22163962751008        0.522468742318745E-01
N     3.18711994874345        -3.85256621387895        0.121054566826528    
N     3.64484313710706        -3.42273552964344       -0.107677424498665    
N     4.04508497187474        -2.93892626146237        0.201743799474194    
N     4.38153340021932        -2.40876837050858        0.140814623928174    
N     4.64888242944126        -1.84062276342339        0.134783834709978    
N     4.84291580564315        -1.24344943582428       -0.725057969232051E-01
N     4.96057350657239       -0.626666167821523        0.346858515440833E-01
N     5.00000000000000       -0.122464679914735E-14   -0.486078153940959E-01
          50

N     4.96057350657239        0.626666167821521        0.540287963451010E-01
N     4.84291580564316         1.24344943582427       -0.611093331060256E-01
N     4.64888242944126         1.84062276342339        0.180791157920541E-01
N     4.38153340021932         2.40876837050858       -0.127343077488497    
N     4.04508497187474         2.93892626146237        0.166016994722801    
N     3.64484313710706         3.42273552964344        0.145101166310593    
N     3.18711994874345         3.85256621387895        0.176598266081603    
N     2.67913397489498         4.22163962751008       -0.765800741325234E-01
N     2.12889645782536         4.52413526233010        0.122495644119866    
N     1.54508497187474         4.75528258147577        0.598306384970610E-01
N    0.936906572928624         4.91143625364344       -0.138964837493712    
N    0.313952597646568         4.99013364214136        0.147246913330104    
N   -0.313952597646567         4.99013364214136       -0.583858148058753E-01
N   -0.936906572928623         4.91143625364344       -0.583858148058753E-01
N    -1.54508497187474         4.75528258147577        0.147246913330104    
N    -2.12889645782536         4.52413526233010       -0.138964837493712    
N    -2.67913397489498         4.22163962751007        0.598306384970610E-01
N    -3.18711994874345         3.85256621387895        0.122495644119866    
N    -3.64484313710706         3.42273552964344       -0.765800741325234E-01
N    -4.04508497187474         2.93892626146237        0.176598266081603    
N    -4.38153340021932         2.40876837050858        0.145101166310593    
N    -4.64888242944126         1.84062276342339        0.166016994722801    
N    -4.84291580564315         1.24344943582428       -0.127343077488497    
N    -4.96057350657239        0.626666167821523        0.180791157920541E-01
N    -5.00000000000000        0.612323399573677E-15   -0.611093331060256E-01
N    -4.96057350657239       -0.626666167821522        0.540287963451010E-01
N    -4.84291580564316        -1.24344943582427       -0.611093331060256E-01
N    -4.64888242944126        -1.84062276342339        0.180791157920541E-01
N    -4.38153340021932        -2.40876837050858       -0.127343077488497    
N    -4.04508497187474        -2.93892626146236        0.166016994722801    
N    -3.64484313710706        -3.42273552964344        0.145101166310593    
N    -3.18711994874345        -3.85256621387895        0.176598266081603    
N    -2.67913397489498        -4.22163962751008       -0.765800741325234E-01
N    -2.12889645782536        -4.52413526233010        0.122495644119866    
N    -1.54508497187474        -4.75528258147577        0.598306384970610E-01
N   -0.936906572928623        -4.91143625364344       -0.138964837493712    
N   -0.313952597646566        -4.99013364214136        0.147246913330104    
N    0.313952597646564        -4.99013364214136       -0.583858148058753E-01
N    0.936906572928621        -4.91143625364344       -0.583858148058753E-01
N     1.54508497187474        -4.75528258147577        0.147246913330104    
N     2.12889645782536        -4.52413526233010       -0.138964837493712    
N     2.67913397489498        -4.22163962751008        0.598306384970610E-01
N     3.18711994874345        -3.85256621387895        0.122495644119866    
N     3.64484313710706        -3.42273552964344       -0.765800741325234E-01
N     4.04508497187474        -2.93892626146237        0.176598266081603    
N     4.38153340021932        -2.40876837050858        0.145101166310593    
N     4.64888242944126        -1.84062276342339        0.166016994722801    
N     4.84291580564315        -1.24344943582428       -0.127343077488497    
N     4.96057350657239       -0.626666167821523        0.180791157920541E-01
N     5.00000000000000       -0.122464679914735E-14   -0.611093331060256E-01
          50

N     4.96057350657239        0.626666167821521        0.121934410802309    
N     4.84291580564316         1.24344943582427       -0.659496186532931E-01
N     4.64888242944126         1.84062276342339       -0.736851889879070E-02
N     4.38153340021932         2.40876837050858       -0.164817035374164    
N     4.04508497187474         2.93892626146237        0.184827645893943    
N     3.64484313710706         3.42273552964344        0.151391026710072    
N     3.18711994874345         3.85256621387895        0.140208155155279    
N     2.67913397489498         4.22163962751008       -0.275851645291486E-01
N     2.12889645782536         4.52413526233010        0.113578572762914    
N     1.54508497187474         4.75528258147577        0.620349442271203E-01
N    0.936906572928624         4.91143625364344       -0.142366048559190    
N    0.313952597646568         4.99013364214136        0.159877417122420    
N   -0.313952597646567         4.99013364214136       -0.647985812583175E-01
N   -0.936906572928623         4.91143625364344       -0.647985812583175E-01
N    -1.54508497187474         4.75528258147577        0.159877417122420    
N    -2.12889645782536         4.52413526233010       -0.142366048559190    
N    -2.67913397489498         4.22163962751007        0.620349442271203E-01
N    -3.18711994874345         3.85256621387895        0.113578572762914    
N    -3.64484313710706         3.42273552964344       -0.275851645291486E-01
N    -4.04508497187474         2.93892626146237        0.140208155155279    
N    -4.38153340021932         2.40876837050858        0.151391026710072    
N    -4.64888242944126         1.84062276342339        0.184827645893943    
N    -4.84291580564315         1.24344943582428       -0.164817035374164    
N    -4.96057350657239        0.626666167821523       -0.736851889879070E-02
N    -5.00000000000000        0.612323399573677E-15   -0.659496186532931E-01
N    -4.96057350657239       -0.626666167821522        0.121934410802309    
N    -4.84291580564316        -1.24344943582427       -0.659496186532931E-01
N    -4.64888242944126        -1.84062276342339       -0.736851889879070E-02
N    -4.38153340021932        -2.40876837050858       -0.164817035374164    
N    -4.04508497187474        -2.93892626146236        0.184827645893943    
N    -3.64484313710706        -3.42273552964344        0.151391026710072    
N    -3.18711994874345        -3.85256621387895        0.140208155155279    
N    -2.67913397489498        -4.22163962751008       -0.275851645291486E-01
N    -2.12889645782536        -4.52413526233010        0.113578572762914    
N    -1.54508497187474        -4.75528258147577        0.620349442271203E-01
N   -0.936906572928623        -4.91143625364344       -0.142366048559190    
N   -0.313952597646566        -4.99013364214136        0.159877417122420    
N    0.313952597646564        -4.99013364214136       -0.647985812583175E-01
N    0.936906572928621        -4.91143625364344       -0.647985812583175E-01
N     1.54508497187474        -4.75528258147577        0.159877417122420    
N     2.12889645782536        -4.52413526233010       -0.142366048559190    
N     2.67913397489498        -4.22163962751008        0.620349442271203E-01
N     3.18711994874345        -3.85256621387895        0.113578572762914    
N     3.64484313710706        -3.42273552964344       -0.275851645291486E-01
N     4.04508497187474        -2.93892626146237        0.140208155155279    
N     4.38153340021932        -2.40876837050858        0.151391026710072    
N     4.64888242944126        -1.84062276342339        0.184827645893943    
N     4.84291580564315        -1.24344943582428       -0.164817035374164    
N     4.96057350657239       -0.626666167821523       -0.736851889879070E-02
N     5.00000000000000       -0.122464679914735E-14   -0.659496186532931E-01
          50

N     4.96057350657239        0.626666167821521        0.174974406417751    
N     4.84291580564316         1.24344943582427       -0.610751145979852E-01
N     4.64888242944126         1.84062276342339       -0.413001539838481E-01
N     4.38153340021932         2.40876837050858       -0.182221360240318    
N     4.04508497187474         2.93892626146237        0.188486931190023    
N     3.64484313710706         3.42273552964344        0.158493694292649    
N     3.18711994874345         3.85256621387895        0.976390474083480E-01
N     2.67913397489498         4.22163962751008        0.336396161608449E-01
N     2.12889645782536         4.52413526233010        0.970251549824440E-01
N     1.54508497187474         4.75528258147577        0.582071519923760E-01
N    0.936906572928624         4.91143625364344       -0.125726197021623    
N    0.313952597646568         4.99013364214136        0.151668097482190    
N   -0.313952597646567         4.99013364214136       -0.623240708739777E-01
N   -0.936906572928623         4.91143625364344       -0.623240708739777E-01
N    -1.54508497187474         4.75528258147577        0.151668097482190    
N    -2.12889645782536         4.52413526233010       -0.125726197021623    
N    -2.67913397489498         4.22163962751007        0.582071519923760E-01
N    -3.18711994874345         3.85256621387895        0.970251549824440E-01
N    -3.64484313710706         3.42273552964344        0.336396161608449E-01
N    -4.04508497187474         2.93892626146237        0.976390474083480E-01
N    -4.38153340021932         2.40876837050858        0.158493694292649    
N    -4.64888242944126         1.84062276342339        0.188486931190023    
N    -4.84291580564315         1.24344943582428       -0.182221360240318    
N    -4.96057350657239        0.626666167821523       -0.413001539838481E-01
N    -5.00000000000000        0.612323399573677E-15   -0.610751145979852E-01
N    -4.96057350657239       -0.626666167821522        0.174974406417751    
N    -4.84291580564316        -1.24344943582427       -0.610751145979852E-01
N    -4.64888242944126        -1.84062276342339       -0.413001539838481E-01
N    -4.38153340021932        -2.40876837050858       -0.182221360240318    
N    -4.04508497187474        -2.93892626146236        0.188486931190023    
N    -3.64484313710706        -3.42273552964344        0.158493694292649    
N    -3.18711994874345        -3.85256621387895        0.976390474083480E-01
N    -2.67913397489498        -4.22163962751008        0.336396161608449E-01
N    -2.12889645782536        -4.52413526233010        0.970251549824440E-01
N    -1.54508497187474        -4.75528258147577        0.582071519923760E-01
N   -0.936906572928623        -4.91143625364344       -0.125726197021623    
N   -0.313952597646566        -4.99013364214136        0.151668097482190    
N    0.313952597646564        -4.99013364214136       -0.623240708739777E-01
N    0.936906572928621        -4.91143625364344       -0.623240708739777E-01
N     1.54508497187474        -4.75528258147577        0.151668097482190    
N     2.12889645782536        -4.52413526233010       -0.125726197021623    
N     2.67913397489498        -4.22163962751008        0.582071519923760E-01
N     3.18711994874345        -3.85256621387895        0.970251549824440E-01
N     3.64484313710706        -3.42273552964344        0.336396161608449E-01
N     4.04508497187474        -2.93892626146237        0.976390474083480E-01
N     4.38153340021932        -2.40876837050858        0.158493694292649    
N     4.64888242944126        -1.84062276342339        0.188486931190023    
N     4.84291580564315        -1.24344943582428       -0.182221360240318    
N     4.96057350657239       -0.626666167821523       -0.413001539838481E-01
N     5.00000000000000       -0.122464679914735E-14   -0.610751145979852E-01
          50

N     4.96057350657239        0.626666167821521        0.209323631826429    
N     4.84291580564316         1.24344943582427       -0.461193675396381E-01
N     4.64888242944126         1.84062276342339       -0.815153254813823E-01
N     4.38153340021932         2.40876837050858       -0.179370810987405    
N     4.04508497187474         2.93892626146237        0.176288315659788    
N     3.64484313710706         3.42273552964344        0.164316655439811    
N     3.18711994874345         3.85256621387895        0.549576960369433E-01
N     2.67913397489498         4.22163962751008        0.999119588849783E-01
N     2.12889645782536         4.52413526233010        0.764084706358152E-01
N     1.54508497187474         4.75528258147577        0.486608533085731E-01
N    0.936906572928624         4.91143625364344       -0.908401657698544E-01
N    0.313952597646568         4.99013364214136        0.124023409222601    
N   -0.313952597646567         4.99013364214136       -0.513835053234459E-01
N   -0.936906572928623         4.91143625364344       -0.513835053234459E-01
N    -1.54508497187474         4.75528258147577        0.124023409222601    
N    -2.12889645782536         4.52413526233010       -0.908401657698544E-01
N    -2.67913397489498         4.22163962751007        0.486608533085731E-01
N    -3.18711994874345         3.85256621387895        0.764084706358152E-01
N    -3.64484313710706         3.42273552964344        0.999119588849783E-01
N    -4.04508497187474         2.93892626146237        0.549576960369433E-01
N    -4.38153340021932         2.40876837050858        0.164316655439811    
N    -4.64888242944126         1.84062276342339        0.176288315659788    
N    -4.84291580564315         1.24344943582428       -0.179370810987405    
N    -4.96057350657239        0.626666167821523       -0.815153254813823E-01
N    -5.00000000000000        0.612323399573677E-15   -0.461193675396381E-01
N    -4.96057350657239       -0.626666167821522        0.209323631826429    
N    -4.84291580564316        -1.24344943582427       -0.461193675396381E-01
N    -4.64888242944126        -1.84062276342339       -0.815153254813823E-01
N    -4.38153340021932        -2.40876837050858       -0.179370810987405    
N    -4.04508497187474        -2.93892626146236        0.176288315659788    
N    -3.64484313710706        -3.42273552964344        0.164316655439811    
N    -3.18711994874345        -3.85256621387895        0.549576960369433E-01
N    -2.67913397489498        -4.22163962751008        0.999119588849783E-01
N    -2.12889645782536        -4.52413526233010        0.764084706358152E-01
N    -1.54508497187474        -4.75528258147577        0.486608533085731E-01
N   -0.936906572928623        -4.91143625364344       -0.908401657698544E-01
N   -0.313952597646566        -4.99013364214136        0.124023409222601    
N    0.313952597646564        -4.99013364214136       -0.513835053234459E-01
N    0.936906572928621        -4.91143625364344       -0.513835053234459E-01
N     1.54508497187474        -4.75528258147577        0.124023409222601    
N     2.12889645782536        -4.52413526233010       -0.908401657698544E-01
N     2.67913397489498        -4.22163962751008        0.486608533085731E-01
N     3.18711994874345        -3.85256621387895        0.764084706358152E-01
N     3.64484313710706        -3.42273552964344        0.999119588849783E-01
N     4.04508497187474        -2.93892626146237        0.549576960369433E-01
N     4.38153340021932        -2.40876837050858        0.164316655439811    
N     4.64888242944126        -1.84062276342339        0.176288315659788    
N     4.84291580564315        -1.24344943582428       -0.179370810987405    
N     4.96057350657239       -0.626666167821523       -0.815153254813823E-01
N     5.00000000000000       -0.122464679914735E-14   -0.461193675396381E-01
          50

N     4.96057350657239        0.626666167821521        0.223431455516790    
N     4.84291580564316         1.24344943582427       -0.224961045994498E-01
N     4.64888242944126         1.84062276342339       -0.124123113225243    
N     4.38153340021932         2.40876837050858       -0.158557151049114    
N     4.04508497187474         2.93892626146237        0.149529360054982    
N     3.64484313710706         3.42273552964344        0.166241767951153    
N     3.18711994874345         3.85256621387895        0.183858266235464E-01
N     2.67913397489498         4.22163962751008        0.163484039983956    
N     2.12889645782536         4.52413526233010        0.555993379007608E-01
N     1.54508497187474         4.75528258147577        0.347204540656666E-01
N    0.936906572928624         4.91143625364344       -0.419402215171474E-01
N    0.313952597646568         4.99013364214136        0.809418303845253E-01
N   -0.313952597646567         4.99013364214136       -0.335017543320317E-01
N   -0.936906572928623         4.91143625364344       -0.335017543320317E-01
N    -1.54508497187474         4.75528258147577        0.809418303845253E-01
N    -2.12889645782536         4.52413526233010       -0.419402215171474E-01
N    -2.67913397489498         4.22163962751007        0.347204540656666E-01
N    -3.18711994874345         3.85256621387895        0.555993379007608E-01
N    -3.64484313710706         3.42273552964344        0.163484039983956    
N    -4.04508497187474         2.93892626146237        0.183858266235464E-01
N    -4.38153340021932         2.40876837050858        0.166241767951153    
N    -4.64888242944126         1.84062276342339        0.149529360054982    
N    -4.84291580564315         1.24344943582428       -0.158557151049114    
N    -4.96057350657239        0.626666167821523       -0.124123113225243    
N    -5.00000000000000        0.612323399573677E-15   -0.224961045994498E-01
N    -4.96057350657239       -0.626666167821522        0.223431455516790    
N    -4.84291580564316        -1.24344943582427       -0.224961045994498E-01
N    -4.64888242944126        -1.84062276342339       -0.124123113225243    
N    -4.38153340021932        -2.40876837050858       -0.158557151049114    
N    -4.04508497187474        -2.93892626146236        0.149529360054982    
N    -3.64484313710706        -3.42273552964344        0.166241767951153    
N    -3.18711994874345        -3.85256621387895        0.183858266235464E-01
N    -2.67913397489498        -4.22163962751008        0.163484039983956    
N    -2.12889645782536        -4.52413526233010        0.555993379007608E-01
N    -1.54508497187474        -4.75528258147577        0.347204540656666E-01
N   -0.936906572928623        -4.91143625364344       -0.419402215171474E-01
N   -0.313952597646566        -4.99013364214136        0.809418303845253E-01
N    0.313952597646564        -4.99013364214136       -0.335017543320317E-01
N    0.936906572928621        -4.91143625364344       -0.335017543320317E-01
N     1.54508497187474        -4.75528258147577        0.809418303845253E-01
N     2.12889645782536        -4.52413526233010       -0.419402215171474E-01
N     2.67913397489498        -4.22163962751008        0.347204540656666E-01
N     3.18711994874345        -3.85256621387895        0.555993379007608E-01
N     3.64484313710706        -3.42273552964344        0.163484039983956    
N     4.04508497187474        -2.93892626146237        0.183858266235464E-01
N     4.38153340021932        -2.40876837050858        0.166241767951153    
N     4.64888242944126        -1.84062276342339        0.149529360054982    
N     4.84291580564315        -1.24344943582428       -0.158557151049114    
N     4.96057350657239       -0.626666167821523       -0.124123113225243    
N     5.00000000000000       -0.122464679914735E-14   -0.224961045994498E-01
          50

N     4.96057350657239        0.626666167821521        0.218034012133360    
N     4.84291580564316         1.24344943582427        0.680461918025977E-02
N     4.64888242944126         1.84062276342339       -0.163996602929482    
N     4.38153340021932         2.40876837050858       -0.124163379240833    
N     4.04508497187474         2.93892626146237        0.111216494749016    
N     3.64484313710706         3.42273552964344        0.161628081767583    
N     3.18711994874345         3.85256621387895       -0.660109979998531E-02
N     2.67913397489498         4.22163962751008        0.217054350532977    
N     2.12889645782536         4.52413526233010        0.382064661852353E-01
N     1.54508497187474         4.75528258147577        0.186015156568270E-01
N    0.936906572928624         4.91143625364344        0.148495950228284E-01
N    0.313952597646568         4.99013364214136        0.284719131877866E-01
N   -0.313952597646567         4.99013364214136       -0.110889603788932E-01
N   -0.936906572928623         4.91143625364344       -0.110889603788932E-01
N    -1.54508497187474         4.75528258147577        0.284719131877866E-01
N    -2.12889645782536         4.52413526233010        0.148495950228284E-01
N    -2.67913397489498         4.22163962751007        0.186015156568270E-01
N    -3.18711994874345         3.85256621387895        0.382064661852353E-01
N    -3.64484313710706         3.42273552964344        0.217054350532977    
N    -4.04508497187474         2.93892626146237       -0.660109979998531E-02
N    -4.38153340021932         2.40876837050858        0.161628081767583    
N    -4.64888242944126         1.84062276342339        0.111216494749016    
N    -4.84291580564315         1.24344943582428       -0.124163379240833    
N    -4.96057350657239        0.626666167821523       -0.163996602929482    
N    -5.00000000000000        0.612323399573677E-15    0.680461918025977E-02
N    -4.96057350657239       -0.626666167821522        0.218034012133360    
N    -4.84291580564316        -1.24344943582427        0.680461918025977E-02
N    -4.64888242944126        -1.84062276342339       -0.163996602929482    
N    -4.38153340021932        -2.40876837050858       -0.124163379240833    
N    -4.04508497187474        -2.93892626146236        0.111216494749016    
N    -3.64484313710706        -3.42273552964344        0.161628081767583    
N    -3.18711994874345        -3.85256621387895       -0.660109979998531E-02
N    -2.67913397489498        -4.22163962751008        0.217054350532977    
N    -2.12889645782536        -4.52413526233010        0.382064661852353E-01
N    -1.54508497187474        -4.75528258147577        0.186015156568270E-01
N   -0.936906572928623        -4.91143625364344        0.148495950228284E-01
N   -0.313952597646566        -4.99013364214136        0.284719131877866E-01
N    0.313952597646564        -4.99013364214136       -0.110889603788932E-01
N    0.936906572928621        -4.91143625364344       -0.110889603788932E-01
N     1.54508497187474        -4.75528258147577        0.284719131877866E-01
N     2.12889645782536        -4.52413526233010        0.148495950228284E-01
N     2.67913397489498        -4.22163962751008        0.186015156568270E-01
N     3.18711994874345        -3.85256621387895        0.382064661852353E-01
N     3.64484313710706        -3.42273552964344        0.217054350532977    
N     4.04508497187474        -2.93892626146237       -0.660109979998531E-02
N     4.38153340021932        -2.40876837050858        0.161628081767583    
N     4.64888242944126        -1.84062276342339        0.111216494749016    
N     4.84291580564315        -1.24344943582428       -0.124163379240833    
N     4.96057350657239       -0.626666167821523       -0.163996602929482    
N     5.00000000000000       -0.122464679914735E-14    0.680461918025977E-02
          50

N     4.96057350657239        0.626666167821521        0.195861221830814    
N     4.84291580564316         1.24344943582427        0.376836805725808E-01
N     4.64888242944126         1.84062276342339       -0.195469471391234    
N     4.38153340021932         2.40876837050858       -0.819963068174349E-01
N     4.04508497187474         2.93892626146237        0.655510698431751E-01
N     3.64484313710706         3.42273552964344        0.148354242126451    
N     3.18711994874345         3.85256621387895       -0.160991102088138E-01
N     2.67913397489498         4.22163962751008        0.254704490984467    
N     2.12889645782536         4.52413526233010        0.270898094508448E-01
N     1.54508497187474         4.75528258147577        0.313583104557077E-02
N    0.936906572928624         4.91143625364344        0.723248506729699E-01
N    0.313952597646568         4.99013364214136       -0.261036452251907E-01
N   -0.313952597646567         4.99013364214136        0.128939480312074E-01
N   -0.936906572928623         4.91143625364344        0.128939480312074E-01
N    -1.54508497187474         4.75528258147577       -0.261036452251907E-01
N    -2.12889645782536         4.52413526233010        0.723248506729699E-01
N    -2.67913397489498         4.22163962751007        0.313583104557077E-02
N    -3.18711994874345         3.85256621387895        0.270898094508448E-01
N    -3.64484313710706         3.42273552964344        0.254704490984467    
N    -4.04508497187474         2.93892626146237       -0.160991102088138E-01
N    -4.38153340021932         2.40876837050858        0.148354242126451    
N    -4.64888242944126         1.84062276342339        0.655510698431751E-01
N    -4.84291580564315         1.24344943582428       -0.819963068174349E-01
N    -4.96057350657239        0.626666167821523       -0.195469471391234    
N    -5.00000000000000        0.612323399573677E-15    0.376836805725808E-01
N    -4.96057350657239       -0.626666167821522        0.195861221830814    
N    -4.84291580564316        -1.24344943582427        0.376836805725808E-01
N    -4.64888242944126        -1.84062276342339       -0.195469471391234    
N    -4.38153340021932        -2.40876837050858       -0.819963068174349E-01
N    -4.04508497187474        -2.93892626146236        0.655510698431751E-01
N    -3.64484313710706        -3.42273552964344        0.148354242126451    
N    -3.18711994874345        -3.85256621387895       -0.160991102088138E-01
N    -2.67913397489498        -4.22163962751008        0.254704490984467    
N    -2.12889645782536        -4.52413526233010        0.270898094508448E-01
N    -1.54508497187474        -4.75528258147577        0.313583104557077E-02
N   -0.936906572928623        -4.91143625364344        0.723248506729699E-01
N   -0.313952597646566        -4.99013364214136       -0.261036452251907E-01
N    0.313952597646564        -4.99013364214136        0.128939480312074E-01
N    0.936906572928621        -4.91143625364344        0.128939480312074E-01
N     1.54508497187474        -4.75528258147577       -0.261036452251907E-01
N     2.12889645782536        -4.52413526233010        0.723248506729699E-01
N     2.67913397489498        -4.22163962751008        0.313583104557077E-02
N     3.18711994874345        -3.85256621387895        0.270898094508448E-01
N     3.64484313710706        -3.42273552964344        0.254704490984467    
N     4.04508497187474        -2.93892626146237       -0.160991102088138E-01
N     4.38153340021932        -2.40876837050858        0.148354242126451    
N     4.64888242944126        -1.84062276342339        0.655510698431751E-01
N     4.84291580564315        -1.24344943582428       -0.819963068174349E-01
N     4.96057350657239       -0.626666167821523       -0.195469471391234    
N     5.00000000000000       -0.122464679914735E-14    0.376836805725808E-01
          50

N     4.96057350657239        0.626666167821521        0.161098488597615    
N     4.84291580564316         1.24344943582427        0.655876387869752E-01
N     4.64888242944126         1.84062276342339       -0.213174844210708    
N     4.38153340021932         2.40876837050858       -0.384379886544631E-01
N     4.04508497187474         2.93892626146237        0.172849380898471E-01
N     3.64484313710706         3.42273552964344        0.125304870610534    
N     3.18711994874345         3.85256621387895       -0.840131828039151E-02
N     2.67913397489498         4.22163962751008        0.272634990460057    
N     2.12889645782536         4.52413526233010        0.240117858022469E-01
N     1.54508497187474         4.75528258147577       -0.862415631289940E-02
N    0.936906572928624         4.91143625364344        0.123170533608202    
N    0.313952597646568         4.99013364214136       -0.752460534688911E-01
N   -0.313952597646567         4.99013364214136        0.353403592706843E-01
N   -0.936906572928623         4.91143625364344        0.353403592706843E-01
N    -1.54508497187474         4.75528258147577       -0.752460534688911E-01
N    -2.12889645782536         4.52413526233010        0.123170533608202    
N    -2.67913397489498         4.22163962751007       -0.862415631289940E-02
N    -3.18711994874345         3.85256621387895        0.240117858022469E-01
N    -3.64484313710706         3.42273552964344        0.272634990460057    
N    -4.04508497187474         2.93892626146237       -0.840131828039151E-02
N    -4.38153340021932         2.40876837050858        0.125304870610534    
N    -4.64888242944126         1.84062276342339        0.172849380898471E-01
N    -4.84291580564315         1.24344943582428       -0.384379886544631E-01
N    -4.96057350657239        0.626666167821523       -0.213174844210708    
N    -5.00000000000000        0.612323399573677E-15    0.655876387869752E-01
N    -4.96057350657239       -0.626666167821522        0.161098488597615    
N    -4.84291580564316        -1.24344943582427        0.655876387869752E-01
N    -4.64888242944126        -1.84062276342339       -0.213174844210708    
N    -4.38153340021932        -2.40876837050858       -0.384379886544631E-01
N    -4.04508497187474        -2.93892626146236        0.172849380898471E-01
N    -3.64484313710706        -3.42273552964344        0.125304870610534    
N    -3.18711994874345        -3.85256621387895       -0.840131828039151E-02
N    -2.67913397489498        -4.22163962751008        0.272634990460057    
N    -2.12889645782536        -4.52413526233010        0.240117858022469E-01
N    -1.54508497187474        -4.75528258147577       -0.862415631289940E-02
N   -0.936906572928623        -4.91143625364344        0.123170533608202    
N   -0.313952597646566        -4.99013364214136       -0.752460534688911E-01
N    0.313952597646564        -4.99013364214136        0.353403592706843E-01
N    0.936906572928621        -4.91143625364344        0.353403592706843E-01
N     1.54508497187474        -4.75528258147577       -0.752460534688911E-01
N     2.12889645782536        -4.52413526233010        0.123170533608202    
N     2.67913397489498        -4.22163962751008       -0.862415631289940E-02
N     3.18711994874345        -3.85256621387895        0.240117858022469E-01
N     3.64484313710706        -3.42273552964344        0.272634990460057    
N     4.04508497187474        -2.93892626146237       -0.840131828039151E-02
N     4.38153340021932        -2.40876837050858        0.125304870610534    
N     4.64888242944126        -1.84062276342339        0.172849380898471E-01
N     4.84291580564315        -1.24344943582428       -0.384379886544631E-01
N     4.96057350657239       -0.626666167821523       -0.213174844210708    
N     5.00000000000000       -0.122464679914735E-14    0.655876387869752E-01
          50

N     4.96057350657239        0.626666167821521        0.118697176466682    
N     4.84291580564316         1.24344943582427        0.862449614366850E-01
N     4.64888242944126         1.84062276342339       -0.212900806758110    
N     4.38153340021932         2.40876837050858        0.458388667430429E-03
N     4.04508497187474         2.93892626146237       -0.289508931401133E-01
N     3.64484313710706         3.42273552964344        0.927124836815322E-01
N     3.18711994874345         3.85256621387895        0.156737594365143E-01
N     2.67913397489498         4.22163962751008        0.269603425178170    
N     2.12889645782536         4.52413526233010        0.294674624024703E-01
N     1.54508497187474         4.75528258147577       -0.138657795823676E-01
N    0.936906572928624         4.91143625364344        0.160958278090916    
N    0.313952597646568         4.99013364214136       -0.112168864877106    
N   -0.313952597646567         4.99013364214136        0.534189972306378E-01
N   -0.936906572928623         4.91143625364344        0.534189972306378E-01
N    -1.54508497187474         4.75528258147577       -0.112168864877106    
N    -2.12889645782536         4.52413526233010        0.160958278090916    
N    -2.67913397489498         4.22163962751007       -0.138657795823676E-01
N    -3.18711994874345         3.85256621387895        0.294674624024703E-01
N    -3.64484313710706         3.42273552964344        0.269603425178170    
N    -4.04508497187474         2.93892626146237        0.156737594365143E-01
N    -4.38153340021932         2.40876837050858        0.927124836815322E-01
N    -4.64888242944126         1.84062276342339       -0.289508931401133E-01
N    -4.84291580564315         1.24344943582428        0.458388667430429E-03
N    -4.96057350657239        0.626666167821523       -0.212900806758110    
N    -5.00000000000000        0.612323399573677E-15    0.862449614366850E-01
N    -4.96057350657239       -0.626666167821522        0.118697176466682    
N    -4.84291580564316        -1.24344943582427        0.862449614366850E-01
N    -4.64888242944126        -1.84062276342339       -0.212900806758110    
N    -4.38153340021932        -2.40876837050858        0.458388667430429E-03
N    -4.04508497187474        -2.93892626146236       -0.289508931401133E-01
N    -3.64484313710706        -3.42273552964344        0.927124836815322E-01
N    -3.18711994874345        -3.85256621387895        0.156737594365143E-01
N    -2.67913397489498        -4.22163962751008        0.269603425178170    
N    -2.12889645782536        -4.52413526233010        0.294674624024703E-01
N    -1.54508497187474        -4.75528258147577       -0.138657795823676E-01
N   -0.936906572928623        -4.91143625364344        0.160958278090916    
N   -0.313952597646566        -4.99013364214136       -0.112168864877106    
N    0.313952597646564        -4.99013364214136        0.534189972306378E-01
N    0.936906572928621        -4.91143625364344        0.534189972306378E-01
N     1.54508497187474        -4.75528258147577       -0.112168864877106    
N     2.12889645782536        -4.52413526233010        0.160958278090916    
N     2.67913397489498        -4.22163962751008       -0.138657795823676E-01
N     3.18711994874345        -3.85256621387895        0.294674624024703E-01
N     3.64484313710706        -3.42273552964344        0.269603425178170    
N     4.04508497187474        -2.93892626146237        0.156737594365143E-01
N     4.38153340021932        -2.40876837050858        0.927124836815322E-01
N     4.64888242944126        -1.84062276342339       -0.289508931401133E-01
N     4.84291580564315        -1.24344943582428        0.458388667430429E-03
N     4.96057350657239       -0.626666167821523       -0.212900806758110    
N     5.00000000000000       -0.122464679914735E-14    0.862449614366850E-01
          50

N     4.96057350657239        0.626666167821521        0.736463670257360E-01
N     4.84291580564316         1.24344943582427        0.963646493671855E-01
N     4.64888242944126         1.84062276342339       -0.192330245671344    
N     4.38153340021932         2.40876837050858        0.297964313401995E-01
N     4.04508497187474         2.93892626146237       -0.692423441001889E-01
N     3.64484313710706         3.42273552964344        0.522885888242525E-01
N     3.18711994874345         3.85256621387895        0.528078500323707E-01
N     2.67913397489498         4.22163962751008        0.247010458963095    
N     2.12889645782536         4.52413526233010        0.427063635213499E-01
N     1.54508497187474         4.75528258147577       -0.104723723492097E-01
N    0.936906572928624         4.91143625364344        0.181034074619152    
N    0.313952597646568         4.99013364214136       -0.131740961120150    
N   -0.313952597646567         4.99013364214136        0.649543230604206E-01
N   -0.936906572928623         4.91143625364344        0.649543230604206E-01
N    -1.54508497187474         4.75528258147577       -0.131740961120150    
N    -2.12889645782536         4.52413526233010        0.181034074619152    
N    -2.67913397489498         4.22163962751007       -0.104723723492097E-01
N    -3.18711994874345         3.85256621387895        0.427063635213499E-01
N    -3.64484313710706         3.42273552964344        0.247010458963095    
N    -4.04508497187474         2.93892626146237        0.528078500323707E-01
N    -4.38153340021932         2.40876837050858        0.522885888242525E-01
N    -4.64888242944126         1.84062276342339       -0.692423441001889E-01
N    -4.84291580564315         1.24344943582428        0.297964313401995E-01
N    -4.96057350657239        0.626666167821523       -0.192330245671344    
N    -5.00000000000000        0.612323399573677E-15    0.963646493671855E-01
N    -4.96057350657239       -0.626666167821522        0.736463670257360E-01
N    -4.84291580564316        -1.24344943582427        0.963646493671855E-01
N    -4.64888242944126        -1.84062276342339       -0.192330245671344    
N    -4.38153340021932        -2.40876837050858        0.297964313401995E-01
N    -4.04508497187474        -2.93892626146236       -0.692423441001889E-01
N    -3.64484313710706        -3.42273552964344        0.522885888242525E-01
N    -3.18711994874345        -3.85256621387895        0.528078500323707E-01
N    -2.67913397489498        -4.22163962751008        0.247010458963095    
N    -2.12889645782536        -4.52413526233010        0.427063635213499E-01
N    -1.54508497187474        -4.75528258147577       -0.104723723492097E-01
N   -0.936906572928623        -4.91143625364344        0.181034074619152    
N   -0.313952597646566        -4.99013364214136       -0.131740961120150    
N    0.313952597646564        -4.99013364214136        0.649543230604206E-01
N    0.936906572928621        -4.91143625364344        0.649543230604206E-01
N     1.54508497187474        -4.75528258147577       -0.131740961120150    
N     2.12889645782536        -4.52413526233010        0.181034074619152    
N     2.67913397489498        -4.22163962751008       -0.104723723492097E-01
N     3.18711994874345        -3.85256621387895        0.427063635213499E-01
N     3.64484313710706        -3.42273552964344        0.247010458963095    
N     4.04508497187474        -2.93892626146237        0.528078500323707E-01
N     4.38153340021932        -2.40876837050858        0.522885888242525E-01
N     4.64888242944126        -1.84062276342339       -0.692423441001889E-01
N     4.84291580564315        -1.24344943582428        0.297964313401995E-01
N     4.96057350657239       -0.626666167821523       -0.192330245671344    
N     5.00000000000000       -0.122464679914735E-14    0.963646493671855E-01
          50

N     4.96057350657239        0.626666167821521        0.303185306876404E-01
N     4.84291580564316         1.24344943582427        0.941841841814991E-01
N     4.64888242944126         1.84062276342339       -0.151546345968347    
N     4.38153340021932         2.40876837050858        0.464700824310741E-01
N     4.04508497187474         2.93892626146237       -0.100828109727113    
N     3.64484313710706         3.42273552964344        0.711118107326130E-02
N     3.18711994874345         3.85256621387895        0.975689964753240E-01
N     2.67913397489498         4.22163962751008        0.208628821168372    
N     2.12889645782536         4.52413526233010        0.619296842316708E-01
N     1.54508497187474         4.75528258147577        0.259663550650321E-02
N    0.936906572928624         4.91143625364344        0.181172561981187    
N    0.313952597646568         4.99013364214136       -0.131162519638533    
N   -0.313952597646567         4.99013364214136        0.687155629412819E-01
N   -0.936906572928623         4.91143625364344        0.687155629412819E-01
N    -1.54508497187474         4.75528258147577       -0.131162519638533    
N    -2.12889645782536         4.52413526233010        0.181172561981187    
N    -2.67913397489498         4.22163962751007        0.259663550650321E-02
N    -3.18711994874345         3.85256621387895        0.619296842316708E-01
N    -3.64484313710706         3.42273552964344        0.208628821168372    
N    -4.04508497187474         2.93892626146237        0.975689964753240E-01
N    -4.38153340021932         2.40876837050858        0.711118107326130E-02
N    -4.64888242944126         1.84062276342339       -0.100828109727113    
N    -4.84291580564315         1.24344943582428        0.464700824310741E-01
N    -4.96057350657239        0.626666167821523       -0.151546345968347    
N    -5.00000000000000        0.612323399573677E-15    0.941841841814991E-01
N    -4.96057350657239       -0.626666167821522        0.303185306876404E-01
N    -4.84291580564316        -1.24344943582427        0.941841841814991E-01
N    -4.64888242944126        -1.84062276342339       -0.151546345968347    
N    -4.38153340021932        -2.40876837050858        0.464700824310741E-01
N    -4.04508497187474        -2.93892626146236       -0.100828109727113    
N    -3.64484313710706        -3.42273552964344        0.711118107326130E-02
N    -3.18711994874345        -3.85256621387895        0.975689964753240E-01
N    -2.67913397489498        -4.22163962751008        0.208628821168372    
N    -2.12889645782536        -4.52413526233010        0.619296842316708E-01
N    -1.54508497187474        -4.75528258147577        0.259663550650321E-02
N   -0.936906572928623        -4.91143625364344        0.181172561981187    
N   -0.313952597646566        -4.99013364214136       -0.131162519638533    
N    0.313952597646564        -4.99013364214136        0.687155629412819E-01
N    0.936906572928621        -4.91143625364344        0.687155629412819E-01
N     1.54508497187474        -4.75528258147577       -0.131162519638533    
N     2.12889645782536        -4.52413526233010        0.181172561981187    
N     2.67913397489498        -4.22163962751008        0.259663550650321E-02
N     3.18711994874345        -3.85256621387895        0.619296842316708E-01
N     3.64484313710706        -3.42273552964344        0.208628821168372    
N     4.04508497187474        -2.93892626146237        0.975689964753240E-01
N     4.38153340021932        -2.40876837050858        0.711118107326130E-02
N     4.64888242944126        -1.84062276342339       -0.100828109727113    
N     4.84291580564315        -1.24344943582428        0.464700824310741E-01
N     4.96057350657239       -0.626666167821523       -0.151546345968347    
N     5.00000000000000       -0.122464679914735E-14    0.941841841814991E-01
          50

N     4.96057350657239        0.626666167821521       -0.801594238842303E-02
N     4.84291580564316         1.24344943582427        0.797777776441511E-01
N     4.64888242944126         1.84062276342339       -0.932172180559867E-01
N     4.38153340021932         2.40876837050858        0.495155100021923E-01
N     4.04508497187474         2.93892626146237       -0.122320201509853    
N     3.64484313710706         3.42273552964344       -0.387243660858589E-01
N     3.18711994874345         3.85256621387895        0.143112308273738    
N     2.67913397489498         4.22163962751008        0.160019644707769    
N     2.12889645782536         4.52413526233010        0.846217280140440E-01
N     1.54508497187474         4.75528258147577        0.250653380297812E-01
N    0.936906572928624         4.91143625364344        0.161904461179945    
N    0.313952597646568         4.99013364214136       -0.110323205810004    
N   -0.313952597646567         4.99013364214136        0.645761948042947E-01
N   -0.936906572928623         4.91143625364344        0.645761948042947E-01
N    -1.54508497187474         4.75528258147577       -0.110323205810004    
N    -2.12889645782536         4.52413526233010        0.161904461179945    
N    -2.67913397489498         4.22163962751007        0.250653380297812E-01
N    -3.18711994874345         3.85256621387895        0.846217280140440E-01
N    -3.64484313710706         3.42273552964344        0.160019644707769    
N    -4.04508497187474         2.93892626146237        0.143112308273738    
N    -4.38153340021932         2.40876837050858       -0.387243660858589E-01
N    -4.64888242944126         1.84062276342339       -0.122320201509853    
N    -4.84291580564315         1.24344943582428        0.495155100021923E-01
N    -4.96057350657239        0.626666167821523       -0.932172180559867E-01
N    -5.00000000000000        0.612323399573677E-15    0.797777776441511E-01
N    -4.96057350657239       -0.626666167821522       -0.801594238842303E-02
N    -4.84291580564316        -1.24344943582427        0.797777776441511E-01
N    -4.64888242944126        -1.84062276342339       -0.932172180559867E-01
N    -4.38153340021932        -2.40876837050858        0.495155100021923E-01
N    -4.04508497187474        -2.93892626146236       -0.122320201509853    
N    -3.64484313710706        -3.42273552964344       -0.387243660858589E-01
N    -3.18711994874345        -3.85256621387895        0.143112308273738    
N    -2.67913397489498        -4.22163962751008        0.160019644707769    
N    -2.12889645782536        -4.52413526233010        0.846217280140440E-01
N    -1.54508497187474        -4.75528258147577        0.250653380297812E-01
N   -0.936906572928623        -4.91143625364344        0.161904461179945    
N   -0.313952597646566        -4.99013364214136       -0.110323205810004    
N    0.313952597646564        -4.99013364214136        0.645761948042947E-01
N    0.936906572928621        -4.91143625364344        0.645761948042947E-01
N     1.54508497187474        -4.75528258147577       -0.110323205810004    
N     2.12889645782536        -4.52413526233010        0.161904461179945    
N     2.67913397489498        -4.22163962751008        0.250653380297812E-01
N     3.18711994874345        -3.85256621387895        0.846217280140440E-01
N     3.64484313710706        -3.42273552964344        0.160019644707769    
N     4.04508497187474        -2.93892626146237        0.143112308273738    
N     4.38153340021932        -2.40876837050858       -0.387243660858589E-01
N     4.64888242944126        -1.84062276342339       -0.122320201509853    
N     4.84291580564315        -1.24344943582428        0.495155100021923E-01
N     4.96057350657239       -0.626666167821523       -0.932172180559867E-01
N     5.00000000000000       -0.122464679914735E-14    0.797777776441511E-01
          50

N     4.96057350657239        0.626666167821521       -0.394426167788876E-01
N     4.84291580564316         1.24344943582427        0.550741475238245E-01
N     4.64888242944126         1.84062276342339       -0.224190697317228E-01
N     4.38153340021932         2.40876837050858        0.401374713524382E-01
N     4.04508497187474         2.93892626146237       -0.133691538565545    
N     3.64484313710706         3.42273552964344       -0.806444418766416E-01
N     3.18711994874345         3.85256621387895        0.182103087470208    
N     2.67913397489498         4.22163962751008        0.107723054111271    
N     2.12889645782536         4.52413526233010        0.107956928739854    
N     1.54508497187474         4.75528258147577        0.552856092164552E-01
N    0.936906572928624         4.91143625364344        0.126467656929444    
N    0.313952597646568         4.99013364214136       -0.717950120364683E-01
N   -0.313952597646567         4.99013364214136        0.535234152563272E-01
N   -0.936906572928623         4.91143625364344        0.535234152563272E-01
N    -1.54508497187474         4.75528258147577       -0.717950120364683E-01
N    -2.12889645782536         4.52413526233010        0.126467656929444    
N    -2.67913397489498         4.22163962751007        0.552856092164552E-01
N    -3.18711994874345         3.85256621387895        0.107956928739854    
N    -3.64484313710706         3.42273552964344        0.107723054111271    
N    -4.04508497187474         2.93892626146237        0.182103087470208    
N    -4.38153340021932         2.40876837050858       -0.806444418766416E-01
N    -4.64888242944126         1.84062276342339       -0.133691538565545    
N    -4.84291580564315         1.24344943582428        0.401374713524382E-01
N    -4.96057350657239        0.626666167821523       -0.224190697317228E-01
N    -5.00000000000000        0.612323399573677E-15    0.550741475238245E-01
N    -4.96057350657239       -0.626666167821522       -0.394426167788876E-01
N    -4.84291580564316        -1.24344943582427        0.550741475238245E-01
N    -4.64888242944126        -1.84062276342339       -0.224190697317228E-01
N    -4.38153340021932        -2.40876837050858        0.401374713524382E-01
N    -4.04508497187474        -2.93892626146236       -0.133691538565545    
N    -3.64484313710706        -3.42273552964344       -0.806444418766416E-01
N    -3.18711994874345        -3.85256621387895        0.182103087470208    
N    -2.67913397489498        -4.22163962751008        0.107723054111271    
N    -2.12889645782536        -4.52413526233010        0.107956928739854    
N    -1.54508497187474        -4.75528258147577        0.552856092164552E-01
N   -0.936906572928623        -4.91143625364344        0.126467656929444    
N   -0.313952597646566        -4.99013364214136       -0.717950120364683E-01
N    0.313952597646564        -4.99013364214136        0.535234152563272E-01
N    0.936906572928621        -4.91143625364344        0.535234152563272E-01
N     1.54508497187474        -4.75528258147577       -0.717950120364683E-01
N     2.12889645782536        -4.52413526233010        0.126467656929444    
N     2.67913397489498        -4.22163962751008        0.552856092164552E-01
N     3.18711994874345        -3.85256621387895        0.107956928739854    
N     3.64484313710706        -3.42273552964344        0.107723054111271    
N     4.04508497187474        -2.93892626146237        0.182103087470208    
N     4.38153340021932        -2.40876837050858       -0.806444418766416E-01
N     4.64888242944126        -1.84062276342339       -0.133691538565545    
N     4.84291580564315        -1.24344943582428        0.401374713524382E-01
N     4.96057350657239       -0.626666167821523       -0.224190697317228E-01
N     5.00000000000000       -0.122464679914735E-14    0.550741475238245E-01
          50

N     4.96057350657239        0.626666167821521       -0.634037339334654E-01
N     4.84291580564316         1.24344943582427        0.235793768642722E-01
N     4.64888242944126         1.84062276342339        0.538897815660492E-01
N     4.38153340021932         2.40876837050858        0.214154654504821E-01
N     4.04508497187474         2.93892626146237       -0.136051664359959    
N     3.64484313710706         3.42273552964344       -0.114246848102033    
N     3.18711994874345         3.85256621387895        0.207736044109125    
N     2.67913397489498         4.22163962751008        0.583395332511123E-01
N     2.12889645782536         4.52413526233010        0.129216187866855    
N     1.54508497187474         4.75528258147577        0.903844381189107E-01
N    0.936906572928624         4.91143625364344        0.803839386498153E-01
N    0.313952597646568         4.99013364214136       -0.204618740957374E-01
N   -0.313952597646567         4.99013364214136        0.375174876478414E-01
N   -0.936906572928623         4.91143625364344        0.375174876478414E-01
N    -1.54508497187474         4.75528258147577       -0.204618740957374E-01
N    -2.12889645782536         4.52413526233010        0.803839386498153E-01
N    -2.67913397489498         4.22163962751007        0.903844381189107E-01
N    -3.18711994874345         3.85256621387895        0.129216187866855    
N    -3.64484313710706         3.42273552964344        0.583395332511123E-01
N    -4.04508497187474         2.93892626146237        0.207736044109125    
N    -4.38153340021932         2.40876837050858       -0.114246848102033    
N    -4.64888242944126         1.84062276342339       -0.136051664359959    
N    -4.84291580564315         1.24344943582428        0.214154654504821E-01
N    -4.96057350657239        0.626666167821523        0.538897815660492E-01
N    -5.00000000000000        0.612323399573677E-15    0.235793768642722E-01
N    -4.96057350657239       -0.626666167821522       -0.634037339334654E-01
N    -4.84291580564316        -1.24344943582427        0.235793768642722E-01
N    -4.64888242944126        -1.84062276342339        0.538897815660492E-01
N    -4.38153340021932        -2.40876837050858        0.214154654504821E-01
N    -4.04508497187474        -2.93892626146236       -0.136051664359959    
N    -3.64484313710706        -3.42273552964344       -0.114246848102033    
N    -3.18711994874345        -3.85256621387895        0.207736044109125    
N    -2.67913397489498        -4.22163962751008        0.583395332511123E-01
N    -2.12889645782536        -4.52413526233010        0.129216187866855    
N    -1.54508497187474        -4.75528258147577        0.903844381189107E-01
N   -0.936906572928623        -4.91143625364344        0.803839386498153E-01
N   -0.313952597646566        -4.99013364214136       -0.204618740957374E-01
N    0.313952597646564        -4.99013364214136        0.375174876478414E-01
N    0.936906572928621        -4.91143625364344        0.375174876478414E-01
N     1.54508497187474        -4.75528258147577       -0.204618740957374E-01
N     2.12889645782536        -4.52413526233010        0.803839386498153E-01
N     2.67913397489498        -4.22163962751008        0.903844381189107E-01
N     3.18711994874345        -3.85256621387895        0.129216187866855    
N     3.64484313710706        -3.42273552964344        0.583395332511123E-01
N     4.04508497187474        -2.93892626146237        0.207736044109125    
N     4.38153340021932        -2.40876837050858       -0.114246848102033    
N     4.64888242944126        -1.84062276342339       -0.136051664359959    
N     4.84291580564315        -1.24344943582428        0.214154654504821E-01
N     4.96057350657239       -0.626666167821523        0.538897815660492E-01
N     5.00000000000000       -0.122464679914735E-14    0.235793768642722E-01
          50

N     4.96057350657239        0.626666167821521       -0.804674628457522E-01
N     4.84291580564316         1.24344943582427       -0.101525363019508E-01
N     4.64888242944126         1.84062276342339        0.127679889049275    
N     4.38153340021932         2.40876837050858       -0.225756238870595E-02
N     4.04508497187474         2.93892626146237       -0.131265388135885    
N     3.64484313710706         3.42273552964344       -0.135960583305801    
N     3.18711994874345         3.85256621387895        0.214708061372421    
N     2.67913397489498         4.22163962751008        0.176314254875546E-01
N     2.12889645782536         4.52413526233010        0.146149187665795    
N     1.54508497187474         4.75528258147577        0.126602328007763    
N    0.936906572928624         4.91143625364344        0.307153948622529E-01
N    0.313952597646568         4.99013364214136        0.371623433828605E-01
N   -0.313952597646567         4.99013364214136        0.192211717272979E-01
N   -0.936906572928623         4.91143625364344        0.192211717272979E-01
N    -1.54508497187474         4.75528258147577        0.371623433828605E-01
N    -2.12889645782536         4.52413526233010        0.307153948622529E-01
N    -2.67913397489498         4.22163962751007        0.126602328007763    
N    -3.18711994874345         3.85256621387895        0.146149187665795    
N    -3.64484313710706         3.42273552964344        0.176314254875546E-01
N    -4.04508497187474         2.93892626146237        0.214708061372421    
N    -4.38153340021932         2.40876837050858       -0.135960583305801    
N    -4.64888242944126         1.84062276342339       -0.131265388135885    
N    -4.84291580564315         1.24344943582428       -0.225756238870595E-02
N    -4.96057350657239        0.626666167821523        0.127679889049275    
N    -5.00000000000000        0.612323399573677E-15   -0.101525363019508E-01
N    -4.96057350657239       -0.626666167821522       -0.804674628457522E-01
N    -4.84291580564316        -1.24344943582427       -0.101525363019508E-01
N    -4.64888242944126        -1.84062276342339        0.127679889049275    
N    -4.38153340021932        -2.40876837050858       -0.225756238870595E-02
N    -4.04508497187474        -2.93892626146236       -0.131265388135885    
N    -3.64484313710706        -3.42273552964344       -0.135960583305801    
N    -3.18711994874345        -3.85256621387895        0.214708061372421    
N    -2.67913397489498        -4.22163962751008        0.176314254875546E-01
N    -2.12889645782536        -4.52413526233010        0.146149187665795    
N    -1.54508497187474        -4.75528258147577        0.126602328007763    
N   -0.936906572928623        -4.91143625364344        0.307153948622529E-01
N   -0.313952597646566        -4.99013364214136        0.371623433828605E-01
N    0.313952597646564        -4.99013364214136        0.192211717272979E-01
N    0.936906572928621        -4.91143625364344        0.192211717272979E-01
N     1.54508497187474        -4.75528258147577        0.371623433828605E-01
N     2.12889645782536        -4.52413526233010        0.307153948622529E-01
N     2.67913397489498        -4.22163962751008        0.126602328007763    
N     3.18711994874345        -3.85256621387895        0.146149187665795    
N     3.64484313710706        -3.42273552964344        0.176314254875546E-01
N     4.04508497187474        -2.93892626146237        0.214708061372421    
N     4.38153340021932        -2.40876837050858       -0.135960583305801    
N     4.64888242944126        -1.84062276342339       -0.131265388135885    
N     4.84291580564315        -1.24344943582428       -0.225756238870595E-02
N     4.96057350657239       -0.626666167821523        0.127679889049275    
N     5.00000000000000       -0.122464679914735E-14   -0.101525363019508E-01
          50

N     4.96057350657239        0.626666167821521       -0.919255351723382E-01
N     4.84291580564316         1.24344943582427       -0.412185321561749E-01
N     4.64888242944126         1.84062276342339        0.190839446660889    
N     4.38153340021932         2.40876837050858       -0.259126032834802E-01
N     4.04508497187474         2.93892626146237       -0.121492515497462    
N     3.64484313710706         3.42273552964344       -0.143610250513617    
N     3.18711994874345         3.85256621387895        0.200006057845693    
N     2.67913397489498         4.22163962751008       -0.102316173248710E-01
N     2.12889645782536         4.52413526233010        0.157231907505321    
N     1.54508497187474         4.75528258147577        0.159780879312841    
N    0.936906572928624         4.91143625364344       -0.149003558486162E-01
N    0.313952597646568         4.99013364214136        0.938334546673273E-01
N   -0.313952597646567         4.99013364214136        0.163689621832170E-02
N   -0.936906572928623         4.91143625364344        0.163689621832170E-02
N    -1.54508497187474         4.75528258147577        0.938334546673273E-01
N    -2.12889645782536         4.52413526233010       -0.149003558486162E-01
N    -2.67913397489498         4.22163962751007        0.159780879312841    
N    -3.18711994874345         3.85256621387895        0.157231907505321    
N    -3.64484313710706         3.42273552964344       -0.102316173248710E-01
N    -4.04508497187474         2.93892626146237        0.200006057845693    
N    -4.38153340021932         2.40876837050858       -0.143610250513617    
N    -4.64888242944126         1.84062276342339       -0.121492515497462    
N    -4.84291580564315         1.24344943582428       -0.259126032834802E-01
N    -4.96057350657239        0.626666167821523        0.190839446660889    
N    -5.00000000000000        0.612323399573677E-15   -0.412185321561749E-01
N    -4.96057350657239       -0.626666167821522       -0.919255351723382E-01
N    -4.84291580564316        -1.24344943582427       -0.412185321561749E-01
N    -4.64888242944126        -1.84062276342339        0.190839446660889    
N    -4.38153340021932        -2.40876837050858       -0.259126032834802E-01
N    -4.04508497187474        -2.93892626146236       -0.121492515497462    
N    -3.64484313710706        -3.42273552964344       -0.143610250513617    
N    -3.18711994874345        -3.85256621387895        0.200006057845693    
N    -2.67913397489498        -4.22163962751008       -0.102316173248710E-01
N    -2.12889645782536        -4.52413526233010        0.157231907505321    
N    -1.54508497187474        -4.75528258147577        0.159780879312841    
N   -0.936906572928623        -4.91143625364344       -0.149003558486162E-01
N   -0.313952597646566        -4.99013364214136        0.938334546673273E-01
N    0.313952597646564        -4.99013364214136        0.163689621832170E-02
N    0.936906572928621        -4.91143625364344        0.163689621832170E-02
N     1.54508497187474        -4.75528258147577        0.938334546673273E-01
N     2.12889645782536        -4.52413526233010       -0.149003558486162E-01
N     2.67913397489498        -4.22163962751008        0.159780879312841    
N     3.18711994874345        -3.85256621387895        0.157231907505321    
N     3.64484313710706        -3.42273552964344       -0.102316173248710E-01
N     4.04508497187474        -2.93892626146237        0.200006057845693    
N     4.38153340021932        -2.40876837050858       -0.143610250513617    
N     4.64888242944126        -1.84062276342339       -0.121492515497462    
N     4.84291580564315        -1.24344943582428       -0.259126032834802E-01
N     4.96057350657239       -0.626666167821523        0.190839446660889    
N     5.00000000000000       -0.122464679914735E-14   -0.412185321561749E-01
          50

N     4.96057350657239        0.626666167821521       -0.993060387427229E-01
N     4.84291580564316         1.24344943582427       -0.651246761206924E-01
N     4.64888242944126         1.84062276342339        0.236205961463715    
N     4.38153340021932         2.40876837050858       -0.448026259635199E-01
N     4.04508497187474         2.93892626146237       -0.108736269172401    
N     3.64484313710706         3.42273552964344       -0.136791319664782    
N     3.18711994874345         3.85256621387895        0.163395581918112    
N     2.67913397489498         4.22163962751008       -0.231822237228115E-01
N     2.12889645782536         4.52413526233010        0.161788386603564    
N     1.54508497187474         4.75528258147577        0.185933042519416    
N    0.936906572928624         4.91143625364344       -0.493049468244315E-01
N    0.313952597646568         4.99013364214136        0.142570519143758    
N   -0.313952597646567         4.99013364214136       -0.122984108085648E-01
N   -0.936906572928623         4.91143625364344       -0.122984108085648E-01
N    -1.54508497187474         4.75528258147577        0.142570519143758    
N    -2.12889645782536         4.52413526233010       -0.493049468244315E-01
N    -2.67913397489498         4.22163962751007        0.185933042519416    
N    -3.18711994874345         3.85256621387895        0.161788386603564    
N    -3.64484313710706         3.42273552964344       -0.231822237228115E-01
N    -4.04508497187474         2.93892626146237        0.163395581918112    
N    -4.38153340021932         2.40876837050858       -0.136791319664782    
N    -4.64888242944126         1.84062276342339       -0.108736269172401    
N    -4.84291580564315         1.24344943582428       -0.448026259635199E-01
N    -4.96057350657239        0.626666167821523        0.236205961463715    
N    -5.00000000000000        0.612323399573677E-15   -0.651246761206924E-01
N    -4.96057350657239       -0.626666167821522       -0.993060387427229E-01
N    -4.84291580564316        -1.24344943582427       -0.651246761206924E-01
N    -4.64888242944126        -1.84062276342339        0.236205961463715    
N    -4.38153340021932        -2.40876837050858       -0.448026259635199E-01
N    -4.04508497187474        -2.93892626146236       -0.108736269172401    
N    -3.64484313710706        -3.42273552964344       -0.136791319664782    
N    -3.18711994874345        -3.85256621387895        0.163395581918112    
N    -2.67913397489498        -4.22163962751008       -0.231822237228115E-01
N    -2.12889645782536        -4.52413526233010        0.161788386603564    
N    -1.54508497187474        -4.75528258147577        0.185933042519416    
N   -0.936906572928623        -4.91143625364344       -0.493049468244315E-01
N   -0.313952597646566        -4.99013364214136        0.142570519143758    
N    0.313952597646564        -4.99013364214136       -0.122984108085648E-01
N    0.936906572928621        -4.91143625364344       -0.122984108085648E-01
N     1.54508497187474        -4.75528258147577        0.142570519143758    
N     2.12889645782536        -4.52413526233010       -0.493049468244315E-01
N     2.67913397489498        -4.22163962751008        0.185933042519416    
N     3.18711994874345        -3.85256621387895        0.161788386603564    
N     3.64484313710706        -3.42273552964344       -0.231822237228115E-01
N     4.04508497187474        -2.93892626146237        0.163395581918112    
N     4.38153340021932        -2.40876837050858       -0.136791319664782    
N     4.64888242944126        -1.84062276342339       -0.108736269172401    
N     4.84291580564315        -1.24344943582428       -0.448026259635199E-01
N     4.96057350657239       -0.626666167821523        0.236205961463715    
N     5.00000000000000       -0.122464679914735E-14   -0.651246761206924E-01
          50

N     4.96057350657239        0.626666167821521       -0.103899535562396    
N     4.84291580564316         1.24344943582427       -0.784838850683103E-01
N     4.64888242944126         1.84062276342339        0.258497816925193    
N     4.38153340021932         2.40876837050858       -0.551396754662477E-01
N     4.04508497187474         2.93892626146237       -0.944822752663784E-01
N     3.64484313710706         3.42273552964344       -0.116989587358950    
N     3.18711994874345         3.85256621387895        0.107536591220173    
N     2.67913397489498         4.22163962751008       -0.214554520957525E-01
N     2.12889645782536         4.52413526233010        0.159969408791633    
N     1.54508497187474         4.75528258147577        0.201814113360424    
N    0.936906572928624         4.91143625364344       -0.668188305659029E-01
N    0.313952597646568         4.99013364214136        0.177607070770658    
N   -0.313952597646567         4.99013364214136       -0.201055274653391E-01
N   -0.936906572928623         4.91143625364344       -0.201055274653391E-01
N    -1.54508497187474         4.75528258147577        0.177607070770658    
N    -2.12889645782536         4.52413526233010       -0.668188305659029E-01
N    -2.67913397489498         4.22163962751007        0.201814113360424    
N    -3.18711994874345         3.85256621387895        0.159969408791633    
N    -3.64484313710706         3.42273552964344       -0.214554520957525E-01
N    -4.04508497187474         2.93892626146237        0.107536591220173    
N    -4.38153340021932         2.40876837050858       -0.116989587358950    
N    -4.64888242944126         1.84062276342339       -0.944822752663784E-01
N    -4.84291580564315         1.24344943582428       -0.551396754662477E-01
N    -4.96057350657239        0.626666167821523        0.258497816925193    
N    -5.00000000000000        0.612323399573677E-15   -0.784838850683103E-01
N    -4.96057350657239       -0.626666167821522       -0.103899535562396    
N    -4.84291580564316        -1.24344943582427       -0.784838850683103E-01
N    -4.64888242944126        -1.84062276342339        0.258497816925193    
N    -4.38153340021932        -2.40876837050858       -0.551396754662477E-01
N    -4.04508497187474        -2.93892626146236       -0.944822752663784E-01
N    -3.64484313710706        -3.42273552964344       -0.116989587358950    
N    -3.18711994874345        -3.85256621387895        0.107536591220173    
N    -2.67913397489498        -4.22163962751008       -0.214554520957525E-01
N    -2.12889645782536        -4.52413526233010        0.159969408791633    
N    -1.54508497187474        -4.75528258147577        0.201814113360424    
N   -0.936906572928623        -4.91143625364344       -0.668188305659029E-01
N   -0.313952597646566        -4.99013364214136        0.177607070770658    
N    0.313952597646564        -4.99013364214136       -0.201055274653391E-01
N    0.936906572928621        -4.91143625364344       -0.201055274653391E-01
N     1.54508497187474        -4.75528258147577        0.177607070770658    
N     2.12889645782536        -4.52413526233010       -0.668188305659029E-01
N     2.67913397489498        -4.22163962751008        0.201814113360424    
N     3.18711994874345        -3.85256621387895        0.159969408791633    
N     3.64484313710706        -3.42273552964344       -0.214554520957525E-01
N     4.04508497187474        -2.93892626146237        0.107536591220173    
N     4.38153340021932        -2.40876837050858       -0.116989587358950    
N     4.64888242944126        -1.84062276342339       -0.944822752663784E-01
N     4.84291580564315        -1.24344943582428       -0.551396754662477E-01
N     4.96057350657239       -0.626666167821523        0.258497816925193    
N     5.00000000000000       -0.122464679914735E-14   -0.784838850683103E-01
          50

N     4.96057350657239        0.626666167821521       -0.106390868830534    
N     4.84291580564316         1.24344943582427       -0.795426479066003E-01
N     4.64888242944126         1.84062276342339        0.255015422701886    
N     4.38153340021932         2.40876837050858       -0.546617393656084E-01
N     4.04508497187474         2.93892626146237       -0.794903779867649E-01
N     3.64484313710706         3.42273552964344       -0.874166773874960E-01
N     3.18711994874345         3.85256621387895        0.377046771008033E-01
N     2.67913397489498         4.22163962751008       -0.745986012679894E-02
N     2.12889645782536         4.52413526233010        0.152604317809518    
N     1.54508497187474         4.75528258147577        0.205408051216929    
N    0.936906572928624         4.91143625364344       -0.640464355632999E-01
N    0.313952597646568         4.99013364214136        0.195169761504114    
N   -0.313952597646567         4.99013364214136       -0.200890575814137E-01
N   -0.936906572928623         4.91143625364344       -0.200890575814137E-01
N    -1.54508497187474         4.75528258147577        0.195169761504114    
N    -2.12889645782536         4.52413526233010       -0.640464355632999E-01
N    -2.67913397489498         4.22163962751007        0.205408051216929    
N    -3.18711994874345         3.85256621387895        0.152604317809518    
N    -3.64484313710706         3.42273552964344       -0.745986012679894E-02
N    -4.04508497187474         2.93892626146237        0.377046771008033E-01
N    -4.38153340021932         2.40876837050858       -0.874166773874960E-01
N    -4.64888242944126         1.84062276342339       -0.794903779867649E-01
N    -4.84291580564315         1.24344943582428       -0.546617393656084E-01
N    -4.96057350657239        0.626666167821523        0.255015422701886    
N    -5.00000000000000        0.612323399573677E-15   -0.795426479066003E-01
N    -4.96057350657239       -0.626666167821522       -0.106390868830534    
N    -4.84291580564316        -1.24344943582427       -0.795426479066003E-01
N    -4.64888242944126        -1.84062276342339        0.255015422701886    
N    -4.38153340021932        -2.40876837050858       -0.546617393656084E-01
N    -4.04508497187474        -2.93892626146236       -0.794903779867649E-01
N    -3.64484313710706        -3.42273552964344       -0.874166773874960E-01
N    -3.18711994874345        -3.85256621387895        0.377046771008033E-01
N    -2.67913397489498        -4.22163962751008       -0.745986012679894E-02
N    -2.12889645782536        -4.52413526233010        0.152604317809518    
N    -1.54508497187474        -4.75528258147577        0.205408051216929    
N   -0.936906572928623        -4.91143625364344       -0.640464355632999E-01
N   -0.313952597646566        -4.99013364214136        0.195169761504114    
N    0.313952597646564        -4.99013364214136       -0.200890575814137E-01
N    0.936906572928621        -4.91143625364344       -0.200890575814137E-01
N     1.54508497187474        -4.75528258147577        0.195169761504114    
N     2.12889645782536        -4.52413526233010       -0.640464355632999E-01
N     2.67913397489498        -4.22163962751008        0.205408051216929    
N     3.18711994874345        -3.85256621387895        0.152604317809518    
N     3.64484313710706        -3.42273552964344       -0.745986012679894E-02
N     4.04508497187474        -2.93892626146237        0.377046771008033E-01
N     4.38153340021932        -2.40876837050858       -0.874166773874960E-01
N     4.64888242944126        -1.84062276342339       -0.794903779867649E-01
N     4.84291580564315        -1.24344943582428       -0.546617393656084E-01
N     4.96057350657239       -0.626666167821523        0.255015422701886    
N     5.00000000000000       -0.122464679914735E-14   -0.795426479066003E-01
          50

N     4.96057350657239        0.626666167821521       -0.106667214489899    
N     4.84291580564316         1.24344943582427       -0.684529606518764E-01
N     4.64888242944126         1.84062276342339        0.226013330416798    
N     4.38153340021932         2.40876837050858       -0.429486407734943E-01
N     4.04508497187474         2.93892626146237       -0.637715971941117E-01
N     3.64484313710706         3.42273552964344       -0.525774549684447E-01
N     3.18711994874345         3.85256621387895       -0.388485964393029E-01
N     2.67913397489498         4.22163962751008        0.146535281769643E-01
N     2.12889645782536         4.52413526233010        0.140961840143182    
N     1.54508497187474         4.75528258147577        0.196253094777898    
N    0.936906572928624         4.91143625364344       -0.403732770321755E-01
N    0.313952597646568         4.99013364214136        0.193978117961415    
N   -0.313952597646567         4.99013364214136       -0.115537771719004E-01
N   -0.936906572928623         4.91143625364344       -0.115537771719004E-01
N    -1.54508497187474         4.75528258147577        0.193978117961415    
N    -2.12889645782536         4.52413526233010       -0.403732770321755E-01
N    -2.67913397489498         4.22163962751007        0.196253094777898    
N    -3.18711994874345         3.85256621387895        0.140961840143182    
N    -3.64484313710706         3.42273552964344        0.146535281769643E-01
N    -4.04508497187474         2.93892626146237       -0.388485964393029E-01
N    -4.38153340021932         2.40876837050858       -0.525774549684447E-01
N    -4.64888242944126         1.84062276342339       -0.637715971941117E-01
N    -4.84291580564315         1.24344943582428       -0.429486407734943E-01
N    -4.96057350657239        0.626666167821523        0.226013330416798    
N    -5.00000000000000        0.612323399573677E-15   -0.684529606518764E-01
N    -4.96057350657239       -0.626666167821522       -0.106667214489899    
N    -4.84291580564316        -1.24344943582427       -0.684529606518764E-01
N    -4.64888242944126        -1.84062276342339        0.226013330416798    
N    -4.38153340021932        -2.40876837050858       -0.429486407734943E-01
N    -4.04508497187474        -2.93892626146236       -0.637715971941117E-01
N    -3.64484313710706        -3.42273552964344       -0.525774549684447E-01
N    -3.18711994874345        -3.85256621387895       -0.388485964393029E-01
N    -2.67913397489498        -4.22163962751008        0.146535281769643E-01
N    -2.12889645782536        -4.52413526233010        0.140961840143182    
N    -1.54508497187474        -4.75528258147577        0.196253094777898    
N   -0.936906572928623        -4.91143625364344       -0.403732770321755E-01
N   -0.313952597646566        -4.99013364214136        0.193978117961415    
N    0.313952597646564        -4.99013364214136       -0.115537771719004E-01
N    0.936906572928621        -4.91143625364344       -0.115537771719004E-01
N     1.54508497187474        -4.75528258147577        0.193978117961415    
N     2.12889645782536        -4.52413526233010       -0.403732770321755E-01
N     2.67913397489498        -4.22163962751008        0.196253094777898    
N     3.18711994874345        -3.85256621387895        0.140961840143182    
N     3.64484313710706        -3.42273552964344        0.146535281769643E-01
N     4.04508497187474        -2.93892626146237       -0.388485964393029E-01
N     4.38153340021932        -2.40876837050858       -0.525774549684447E-01
N     4.64888242944126        -1.84062276342339       -0.637715971941117E-01
N     4.84291580564315        -1.24344943582428       -0.429486407734943E-01
N     4.96057350657239       -0.626666167821523        0.226013330416798    
N     5.00000000000000       -0.122464679914735E-14   -0.684529606518764E-01
          50

N     4.96057350657239        0.626666167821521       -0.103838948165348    
N     4.84291580564316         1.24344943582427       -0.472457522198529E-01
N     4.64888242944126         1.84062276342339        0.174690669829288    
N     4.38153340021932         2.40876837050858       -0.214463204699027E-01
N     4.04508497187474         2.93892626146237       -0.467474834006139E-01
N     3.64484313710706         3.42273552964344       -0.176279392783497E-01
N     3.18711994874345         3.85256621387895       -0.113811518072564    
N     2.67913397489498         4.22163962751008        0.396556315781851E-01
N     2.12889645782536         4.52413526233010        0.126468573295304    
N     1.54508497187474         4.75528258147577        0.175551947223899    
N    0.936906572928624         4.91143625364344        0.191686805150269E-02
N    0.313952597646568         4.99013364214136        0.175397683649176    
N   -0.313952597646567         4.99013364214136        0.511711389660441E-02
N   -0.936906572928623         4.91143625364344        0.511711389660441E-02
N    -1.54508497187474         4.75528258147577        0.175397683649176    
N    -2.12889645782536         4.52413526233010        0.191686805150269E-02
N    -2.67913397489498         4.22163962751007        0.175551947223899    
N    -3.18711994874345         3.85256621387895        0.126468573295304    
N    -3.64484313710706         3.42273552964344        0.396556315781851E-01
N    -4.04508497187474         2.93892626146237       -0.113811518072564    
N    -4.38153340021932         2.40876837050858       -0.176279392783497E-01
N    -4.64888242944126         1.84062276342339       -0.467474834006139E-01
N    -4.84291580564315         1.24344943582428       -0.214463204699027E-01
N    -4.96057350657239        0.626666167821523        0.174690669829288    
N    -5.00000000000000        0.612323399573677E-15   -0.472457522198529E-01
N    -4.96057350657239       -0.626666167821522       -0.103838948165348    
N    -4.84291580564316        -1.24344943582427       -0.472457522198529E-01
N    -4.64888242944126        -1.84062276342339        0.174690669829288    
N    -4.38153340021932        -2.40876837050858       -0.214463204699027E-01
N    -4.04508497187474        -2.93892626146236       -0.467474834006139E-01
N    -3.64484313710706        -3.42273552964344       -0.176279392783497E-01
N    -3.18711994874345        -3.85256621387895       -0.113811518072564    
N    -2.67913397489498        -4.22163962751008        0.396556315781851E-01
N    -2.12889645782536        -4.52413526233010        0.126468573295304    
N    -1.54508497187474        -4.75528258147577        0.175551947223899    
N   -0.936906572928623        -4.91143625364344        0.191686805150269E-02
N   -0.313952597646566        -4.99013364214136        0.175397683649176    
N    0.313952597646564        -4.99013364214136        0.511711389660441E-02
N    0.936906572928621        -4.91143625364344        0.511711389660441E-02
N     1.54508497187474        -4.75528258147577        0.175397683649176    
N     2.12889645782536        -4.52413526233010        0.191686805150269E-02
N     2.67913397489498        -4.22163962751008        0.175551947223899    
N     3.18711994874345        -3.85256621387895        0.126468573295304    
N     3.64484313710706        -3.42273552964344        0.396556315781851E-01
N     4.04508497187474        -2.93892626146237       -0.113811518072564    
N     4.38153340021932        -2.40876837050858       -0.176279392783497E-01
N     4.64888242944126        -1.84062276342339       -0.467474834006139E-01
N     4.84291580564315        -1.24344943582428       -0.214463204699027E-01
N     4.96057350657239       -0.626666167821523        0.174690669829288    
N     5.00000000000000       -0.122464679914735E-14   -0.472457522198529E-01
          50

N     4.96057350657239        0.626666167821521       -0.964695795617454E-01
N     4.84291580564316         1.24344943582427       -0.195091065131993E-01
N     4.64888242944126         1.84062276342339        0.106800729633741    
N     4.38153340021932         2.40876837050858        0.679583623575818E-02
N     4.04508497187474         2.93892626146237       -0.275549866551914E-01
N     3.64484313710706         3.42273552964344        0.123830780928215E-01
N     3.18711994874345         3.85256621387895       -0.178880173877208    
N     2.67913397489498         4.22163962751008        0.620373146416486E-01
N     2.12889645782536         4.52413526233010        0.110437872434121    
N     1.54508497187474         4.75528258147577        0.146042175943036    
N    0.936906572928624         4.91143625364344        0.579243481671501E-01
N    0.313952597646568         4.99013364214136        0.143226708190162    
N   -0.313952597646567         4.99013364214136        0.285309934880359E-01
N   -0.936906572928623         4.91143625364344        0.285309934880359E-01
N    -1.54508497187474         4.75528258147577        0.143226708190162    
N    -2.12889645782536         4.52413526233010        0.579243481671501E-01
N    -2.67913397489498         4.22163962751007        0.146042175943036    
N    -3.18711994874345         3.85256621387895        0.110437872434121    
N    -3.64484313710706         3.42273552964344        0.620373146416486E-01
N    -4.04508497187474         2.93892626146237       -0.178880173877208    
N    -4.38153340021932         2.40876837050858        0.123830780928215E-01
N    -4.64888242944126         1.84062276342339       -0.275549866551914E-01
N    -4.84291580564315         1.24344943582428        0.679583623575818E-02
N    -4.96057350657239        0.626666167821523        0.106800729633741    
N    -5.00000000000000        0.612323399573677E-15   -0.195091065131993E-01
N    -4.96057350657239       -0.626666167821522       -0.964695795617454E-01
N    -4.84291580564316        -1.24344943582427       -0.195091065131993E-01
N    -4.64888242944126        -1.84062276342339        0.106800729633741    
N    -4.38153340021932        -2.40876837050858        0.679583623575818E-02
N    -4.04508497187474        -2.93892626146236       -0.275549866551914E-01
N    -3.64484313710706        -3.42273552964344        0.123830780928215E-01
N    -3.18711994874345        -3.85256621387895       -0.178880173877208    
N    -2.67913397489498        -4.22163962751008        0.620373146416486E-01
N    -2.12889645782536        -4.52413526233010        0.110437872434121    
N    -1.54508497187474        -4.75528258147577        0.146042175943036    
N   -0.936906572928623        -4.91143625364344        0.579243481671501E-01
N   -0.313952597646566        -4.99013364214136        0.143226708190162    
N    0.313952597646564        -4.99013364214136        0.285309934880359E-01
N    0.936906572928621        -4.91143625364344        0.285309934880359E-01
N     1.54508497187474        -4.75528258147577        0.143226708190162    
N     2.12889645782536        -4.52413526233010        0.579243481671501E-01
N     2.67913397489498        -4.22163962751008        0.146042175943036    
N     3.18711994874345        -3.85256621387895        0.110437872434121    
N     3.64484313710706        -3.42273552964344        0.620373146416486E-01
N     4.04508497187474        -2.93892626146237       -0.178880173877208    
N     4.38153340021932        -2.40876837050858        0.123830780928215E-01
N     4.64888242944126        -1.84062276342339       -0.275549866551914E-01
N     4.84291580564315        -1.24344943582428        0.679583623575818E-02
N     4.96057350657239       -0.626666167821523        0.106800729633741    
N     5.00000000000000       -0.122464679914735E-14   -0.195091065131993E-01
          50

N     4.96057350657239        0.626666167821521       -0.829712451774188E-01
N     4.84291580564316         1.24344943582427        0.101788254881169E-01
N     4.64888242944126         1.84062276342339        0.299336028118107E-01
N     4.38153340021932         2.40876837050858        0.376265233616538E-01
N     4.04508497187474         2.93892626146237       -0.543258498119082E-02
N     3.64484313710706         3.42273552964344        0.332745984104841E-01
N     3.18711994874345         3.85256621387895       -0.226832573183424    
N     2.67913397489498         4.22163962751008        0.768250114837878E-01
N     2.12889645782536         4.52413526233010        0.938568861537270E-01
N     1.54508497187474         4.75528258147577        0.111637613714279    
N    0.936906572928624         4.91143625364344        0.120779659599358    
N    0.313952597646568         4.99013364214136        0.103147139495943    
N   -0.313952597646567         4.99013364214136        0.564909202341663E-01
N   -0.936906572928623         4.91143625364344        0.564909202341663E-01
N    -1.54508497187474         4.75528258147577        0.103147139495943    
N    -2.12889645782536         4.52413526233010        0.120779659599358    
N    -2.67913397489498         4.22163962751007        0.111637613714279    
N    -3.18711994874345         3.85256621387895        0.938568861537270E-01
N    -3.64484313710706         3.42273552964344        0.768250114837878E-01
N    -4.04508497187474         2.93892626146237       -0.226832573183424    
N    -4.38153340021932         2.40876837050858        0.332745984104841E-01
N    -4.64888242944126         1.84062276342339       -0.543258498119082E-02
N    -4.84291580564315         1.24344943582428        0.376265233616538E-01
N    -4.96057350657239        0.626666167821523        0.299336028118107E-01
N    -5.00000000000000        0.612323399573677E-15    0.101788254881169E-01
N    -4.96057350657239       -0.626666167821522       -0.829712451774188E-01
N    -4.84291580564316        -1.24344943582427        0.101788254881169E-01
N    -4.64888242944126        -1.84062276342339        0.299336028118107E-01
N    -4.38153340021932        -2.40876837050858        0.376265233616538E-01
N    -4.04508497187474        -2.93892626146236       -0.543258498119082E-02
N    -3.64484313710706        -3.42273552964344        0.332745984104841E-01
N    -3.18711994874345        -3.85256621387895       -0.226832573183424    
N    -2.67913397489498        -4.22163962751008        0.768250114837878E-01
N    -2.12889645782536        -4.52413526233010        0.938568861537270E-01
N    -1.54508497187474        -4.75528258147577        0.111637613714279    
N   -0.936906572928623        -4.91143625364344        0.120779659599358    
N   -0.313952597646566        -4.99013364214136        0.103147139495943    
N    0.313952597646564        -4.99013364214136        0.564909202341663E-01
N    0.936906572928621        -4.91143625364344        0.564909202341663E-01
N     1.54508497187474        -4.75528258147577        0.103147139495943    
N     2.12889645782536        -4.52413526233010        0.120779659599358    
N     2.67913397489498        -4.22163962751008        0.111637613714279    
N     3.18711994874345        -3.85256621387895        0.938568861537270E-01
N     3.64484313710706        -3.42273552964344        0.768250114837878E-01
N     4.04508497187474        -2.93892626146237       -0.226832573183424    
N     4.38153340021932        -2.40876837050858        0.332745984104841E-01
N     4.64888242944126        -1.84062276342339       -0.543258498119082E-02
N     4.84291580564315        -1.24344943582428        0.376265233616538E-01
N     4.96057350657239       -0.626666167821523        0.299336028118107E-01
N     5.00000000000000       -0.122464679914735E-14    0.101788254881169E-01
          50

N     4.96057350657239        0.626666167821521       -0.620898593477126E-01
N     4.84291580564316         1.24344943582427        0.369735260786175E-01
N     4.64888242944126         1.84062276342339       -0.474292121973981E-01
N     4.38153340021932         2.40876837050858        0.664497879797063E-01
N     4.04508497187474         2.93892626146237        0.198924874633168E-01
N     3.64484313710706         3.42273552964344        0.423784641281840E-01
N     3.18711994874345         3.85256621387895       -0.252461749059794    
N     2.67913397489498         4.22163962751008        0.802986225851846E-01
N     2.12889645782536         4.52413526233010        0.772665907456308E-01
N     1.54508497187474         4.75528258147577        0.768862912789426E-01
N    0.936906572928624         4.91143625364344        0.182566113180558    
N    0.313952597646568         4.99013364214136        0.619169751582354E-01
N   -0.313952597646567         4.99013364214136        0.863070323326751E-01
N   -0.936906572928623         4.91143625364344        0.863070323326751E-01
N    -1.54508497187474         4.75528258147577        0.619169751582354E-01
N    -2.12889645782536         4.52413526233010        0.182566113180558    
N    -2.67913397489498         4.22163962751007        0.768862912789426E-01
N    -3.18711994874345         3.85256621387895        0.772665907456308E-01
N    -3.64484313710706         3.42273552964344        0.802986225851846E-01
N    -4.04508497187474         2.93892626146237       -0.252461749059794    
N    -4.38153340021932         2.40876837050858        0.423784641281840E-01
N    -4.64888242944126         1.84062276342339        0.198924874633168E-01
N    -4.84291580564315         1.24344943582428        0.664497879797063E-01
N    -4.96057350657239        0.626666167821523       -0.474292121973981E-01
N    -5.00000000000000        0.612323399573677E-15    0.369735260786175E-01
N    -4.96057350657239       -0.626666167821522       -0.620898593477126E-01
N    -4.84291580564316        -1.24344943582427        0.369735260786175E-01
N    -4.64888242944126        -1.84062276342339       -0.474292121973981E-01
N    -4.38153340021932        -2.40876837050858        0.664497879797063E-01
N    -4.04508497187474        -2.93892626146236        0.198924874633168E-01
N    -3.64484313710706        -3.42273552964344        0.423784641281840E-01
N    -3.18711994874345        -3.85256621387895       -0.252461749059794    
N    -2.67913397489498        -4.22163962751008        0.802986225851846E-01
N    -2.12889645782536        -4.52413526233010        0.772665907456308E-01
N    -1.54508497187474        -4.75528258147577        0.768862912789426E-01
N   -0.936906572928623        -4.91143625364344        0.182566113180558    
N   -0.313952597646566        -4.99013364214136        0.619169751582354E-01
N    0.313952597646564        -4.99013364214136        0.863070323326751E-01
N    0.936906572928621        -4.91143625364344        0.863070323326751E-01
N     1.54508497187474        -4.75528258147577        0.619169751582354E-01
N     2.12889645782536        -4.52413526233010        0.182566113180558    
N     2.67913397489498        -4.22163962751008        0.768862912789426E-01
N     3.18711994874345        -3.85256621387895        0.772665907456308E-01
N     3.64484313710706        -3.42273552964344        0.802986225851846E-01
N     4.04508497187474        -2.93892626146237       -0.252461749059794    
N     4.38153340021932        -2.40876837050858        0.423784641281840E-01
N     4.64888242944126        -1.84062276342339        0.198924874633168E-01
N     4.84291580564315        -1.24344943582428        0.664497879797063E-01
N     4.96057350657239       -0.626666167821523       -0.474292121973981E-01
N     5.00000000000000       -0.122464679914735E-14    0.369735260786175E-01
          50

N     4.96057350657239        0.626666167821521       -0.333846198732235E-01
N     4.84291580564316         1.24344943582427        0.565308235779993E-01
N     4.64888242944126         1.84062276342339       -0.116958984605275    
N     4.38153340021932         2.40876837050858        0.889335783098783E-01
N     4.04508497187474         2.93892626146237        0.478977359015908E-01
N     3.64484313710706         3.42273552964344        0.389658693967020E-01
N     3.18711994874345         3.85256621387895       -0.253240201116231    
N     2.67913397489498         4.22163962751008        0.705132745975472E-01
N     2.12889645782536         4.52413526233010        0.607512631506177E-01
N     1.54508497187474         4.75528258147577        0.463195050478204E-01
N    0.936906572928624         4.91143625364344        0.235392820072112    
N    0.313952597646568         4.99013364214136        0.264166187506844E-01
N   -0.313952597646567         4.99013364214136        0.115170006853168    
N   -0.936906572928623         4.91143625364344        0.115170006853168    
N    -1.54508497187474         4.75528258147577        0.264166187506844E-01
N    -2.12889645782536         4.52413526233010        0.235392820072112    
N    -2.67913397489498         4.22163962751007        0.463195050478204E-01
N    -3.18711994874345         3.85256621387895        0.607512631506177E-01
N    -3.64484313710706         3.42273552964344        0.705132745975472E-01
N    -4.04508497187474         2.93892626146237       -0.253240201116231    
N    -4.38153340021932         2.40876837050858        0.389658693967020E-01
N    -4.64888242944126         1.84062276342339        0.478977359015908E-01
N    -4.84291580564315         1.24344943582428        0.889335783098783E-01
N    -4.96057350657239        0.626666167821523       -0.116958984605275    
N    -5.00000000000000        0.612323399573677E-15    0.565308235779993E-01
N    -4.96057350657239       -0.626666167821522       -0.333846198732235E-01
N    -4.84291580564316        -1.24344943582427        0.565308235779993E-01
N    -4.64888242944126        -1.84062276342339       -0.116958984605275    
N    -4.38153340021932        -2.40876837050858        0.889335783098783E-01
N    -4.04508497187474        -2.93892626146236        0.478977359015908E-01
N    -3.64484313710706        -3.42273552964344        0.389658693967020E-01
N    -3.18711994874345        -3.85256621387895       -0.253240201116231    
N    -2.67913397489498        -4.22163962751008        0.705132745975472E-01
N    -2.12889645782536        -4.52413526233010        0.607512631506177E-01
N    -1.54508497187474        -4.75528258147577        0.463195050478204E-01
N   -0.936906572928623        -4.91143625364344        0.235392820072112    
N   -0.313952597646566        -4.99013364214136        0.264166187506844E-01
N    0.313952597646564        -4.99013364214136        0.115170006853168    
N    0.936906572928621        -4.91143625364344        0.115170006853168    
N     1.54508497187474        -4.75528258147577        0.264166187506844E-01
N     2.12889645782536        -4.52413526233010        0.235392820072112    
N     2.67913397489498        -4.22163962751008        0.463195050478204E-01
N     3.18711994874345        -3.85256621387895        0.607512631506177E-01
N     3.64484313710706        -3.42273552964344        0.705132745975472E-01
N     4.04508497187474        -2.93892626146237       -0.253240201116231    
N     4.38153340021932        -2.40876837050858        0.389658693967020E-01
N     4.64888242944126        -1.84062276342339        0.478977359015908E-01
N     4.84291580564315        -1.24344943582428        0.889335783098783E-01
N     4.96057350657239       -0.626666167821523       -0.116958984605275    
N     5.00000000000000       -0.122464679914735E-14    0.565308235779993E-01
          50

N     4.96057350657239        0.626666167821521        0.239635760463593E-02
N     4.84291580564316         1.24344943582427        0.656959474379592E-01
N     4.64888242944126         1.84062276342339       -0.171481872654826    
N     4.38153340021932         2.40876837050858        0.101660293956303    
N     4.04508497187474         2.93892626146237        0.771084745961721E-01
N     3.64484313710706         3.42273552964344        0.243833915193340E-01
N     3.18711994874345         3.85256621387895       -0.229625668733257    
N     2.67913397489498         4.22163962751008        0.475569477658624E-01
N     2.12889645782536         4.52413526233010        0.440331819648023E-01
N     1.54508497187474         4.75528258147577        0.237854534406758E-01
N    0.936906572928624         4.91143625364344        0.272469728939148    
N    0.313952597646568         4.99013364214136        0.268182634137154E-02
N   -0.313952597646567         4.99013364214136        0.140534116624140    
N   -0.936906572928623         4.91143625364344        0.140534116624140    
N    -1.54508497187474         4.75528258147577        0.268182634137154E-02
N    -2.12889645782536         4.52413526233010        0.272469728939148    
N    -2.67913397489498         4.22163962751007        0.237854534406758E-01
N    -3.18711994874345         3.85256621387895        0.440331819648023E-01
N    -3.64484313710706         3.42273552964344        0.475569477658624E-01
N    -4.04508497187474         2.93892626146237       -0.229625668733257    
N    -4.38153340021932         2.40876837050858        0.243833915193340E-01
N    -4.64888242944126         1.84062276342339        0.771084745961721E-01
N    -4.84291580564315         1.24344943582428        0.101660293956303    
N    -4.96057350657239        0.626666167821523       -0.171481872654826    
N    -5.00000000000000        0.612323399573677E-15    0.656959474379592E-01
N    -4.96057350657239       -0.626666167821522        0.239635760463593E-02
N    -4.84291580564316        -1.24344943582427        0.656959474379592E-01
N    -4.64888242944126        -1.84062276342339       -0.171481872654826    
N    -4.38153340021932        -2.40876837050858        0.101660293956303    
N    -4.04508497187474        -2.93892626146236        0.771084745961721E-01
N    -3.64484313710706        -3.42273552964344        0.243833915193340E-01
N    -3.18711994874345        -3.85256621387895       -0.229625668733257    
N    -2.67913397489498        -4.22163962751008        0.475569477658624E-01
N    -2.12889645782536        -4.52413526233010        0.440331819648023E-01
N    -1.54508497187474        -4.75528258147577        0.237854534406758E-01
N   -0.936906572928623        -4.91143625364344        0.272469728939148    
N   -0.313952597646566        -4.99013364214136        0.268182634137154E-02
N    0.313952597646564        -4.99013364214136        0.140534116624140    
N    0.936906572928621        -4.91143625364344        0.140534116624140    
N     1.54508497187474        -4.75528258147577        0.268182634137154E-02
N     2.12889645782536        -4.52413526233010        0.272469728939148    
N     2.67913397489498        -4.22163962751008        0.237854534406758E-01
N     3.18711994874345        -3.85256621387895        0.440331819648023E-01
N     3.64484313710706        -3.42273552964344        0.475569477658624E-01
N     4.04508497187474        -2.93892626146237       -0.229625668733257    
N     4.38153340021932        -2.40876837050858        0.243833915193340E-01
N     4.64888242944126        -1.84062276342339        0.771084745961721E-01
N     4.84291580564315        -1.24344943582428        0.101660293956303    
N     4.96057350657239       -0.626666167821523       -0.171481872654826    
N     5.00000000000000       -0.122464679914735E-14    0.656959474379592E-01
          50

N     4.96057350657239        0.626666167821521        0.431281562610994E-01
N     4.84291580564316         1.24344943582427        0.630061479951186E-01
N     4.64888242944126         1.84062276342339       -0.205806818688509    
N     4.38153340021932         2.40876837050858        0.102622174426552    
N     4.04508497187474         2.93892626146237        0.105133773107017    
N     3.64484313710706         3.42273552964344        0.186962654769107E-02
N     3.18711994874345         3.85256621387895       -0.184968487178047    
N     2.67913397489498         4.22163962751008        0.135151650973942E-01
N     2.12889645782536         4.52413526233010        0.266490249055407E-01
N     1.54508497187474         4.75528258147577        0.118662951753746E-01
N    0.936906572928624         4.91143625364344        0.289035161199079    
N    0.313952597646568         4.99013364214136       -0.494265035920674E-02
N   -0.313952597646567         4.99013364214136        0.160456509641449    
N   -0.936906572928623         4.91143625364344        0.160456509641449    
N    -1.54508497187474         4.75528258147577       -0.494265035920674E-02
N    -2.12889645782536         4.52413526233010        0.289035161199079    
N    -2.67913397489498         4.22163962751007        0.118662951753746E-01
N    -3.18711994874345         3.85256621387895        0.266490249055407E-01
N    -3.64484313710706         3.42273552964344        0.135151650973942E-01
N    -4.04508497187474         2.93892626146237       -0.184968487178047    
N    -4.38153340021932         2.40876837050858        0.186962654769107E-02
N    -4.64888242944126         1.84062276342339        0.105133773107017    
N    -4.84291580564315         1.24344943582428        0.102622174426552    
N    -4.96057350657239        0.626666167821523       -0.205806818688509    
N    -5.00000000000000        0.612323399573677E-15    0.630061479951186E-01
N    -4.96057350657239       -0.626666167821522        0.431281562610994E-01
N    -4.84291580564316        -1.24344943582427        0.630061479951186E-01
N    -4.64888242944126        -1.84062276342339       -0.205806818688509    
N    -4.38153340021932        -2.40876837050858        0.102622174426552    
N    -4.04508497187474        -2.93892626146236        0.105133773107017    
N    -3.64484313710706        -3.42273552964344        0.186962654769107E-02
N    -3.18711994874345        -3.85256621387895       -0.184968487178047    
N    -2.67913397489498        -4.22163962751008        0.135151650973942E-01
N    -2.12889645782536        -4.52413526233010        0.266490249055407E-01
N    -1.54508497187474        -4.75528258147577        0.118662951753746E-01
N   -0.936906572928623        -4.91143625364344        0.289035161199079    
N   -0.313952597646566        -4.99013364214136       -0.494265035920674E-02
N    0.313952597646564        -4.99013364214136        0.160456509641449    
N    0.936906572928621        -4.91143625364344        0.160456509641449    
N     1.54508497187474        -4.75528258147577       -0.494265035920674E-02
N     2.12889645782536        -4.52413526233010        0.289035161199079    
N     2.67913397489498        -4.22163962751008        0.118662951753746E-01
N     3.18711994874345        -3.85256621387895        0.266490249055407E-01
N     3.64484313710706        -3.42273552964344        0.135151650973942E-01
N     4.04508497187474        -2.93892626146237       -0.184968487178047    
N     4.38153340021932        -2.40876837050858        0.186962654769107E-02
N     4.64888242944126        -1.84062276342339        0.105133773107017    
N     4.84291580564315        -1.24344943582428        0.102622174426552    
N     4.96057350657239       -0.626666167821523       -0.205806818688509    
N     5.00000000000000       -0.122464679914735E-14    0.630061479951186E-01
          50

N     4.96057350657239        0.626666167821521        0.853632640918406E-01
N     4.84291580564316         1.24344943582427        0.489271113837974E-01
N     4.64888242944126         1.84062276342339       -0.217274275006987    
N     4.38153340021932         2.40876837050858        0.914910739342060E-01
N     4.04508497187474         2.93892626146237        0.128904650289991    
N     3.64484313710706         3.42273552964344       -0.239279117652332E-01
N     3.18711994874345         3.85256621387895       -0.125036467223811    
N     2.67913397489498         4.22163962751008       -0.278439422887654E-01
N     2.12889645782536         4.52413526233010        0.816972418037658E-02
N     1.54508497187474         4.75528258147577        0.114682554925562E-01
N    0.936906572928624         4.91143625364344        0.283006035078020    
N    0.313952597646568         4.99013364214136        0.558827821926532E-02
N   -0.313952597646567         4.99013364214136        0.173845835660667    
N   -0.936906572928623         4.91143625364344        0.173845835660667    
N    -1.54508497187474         4.75528258147577        0.558827821926532E-02
N    -2.12889645782536         4.52413526233010        0.283006035078020    
N    -2.67913397489498         4.22163962751007        0.114682554925562E-01
N    -3.18711994874345         3.85256621387895        0.816972418037658E-02
N    -3.64484313710706         3.42273552964344       -0.278439422887654E-01
N    -4.04508497187474         2.93892626146237       -0.125036467223811    
N    -4.38153340021932         2.40876837050858       -0.239279117652332E-01
N    -4.64888242944126         1.84062276342339        0.128904650289991    
N    -4.84291580564315         1.24344943582428        0.914910739342060E-01
N    -4.96057350657239        0.626666167821523       -0.217274275006987    
N    -5.00000000000000        0.612323399573677E-15    0.489271113837974E-01
N    -4.96057350657239       -0.626666167821522        0.853632640918406E-01
N    -4.84291580564316        -1.24344943582427        0.489271113837974E-01
N    -4.64888242944126        -1.84062276342339       -0.217274275006987    
N    -4.38153340021932        -2.40876837050858        0.914910739342060E-01
N    -4.04508497187474        -2.93892626146236        0.128904650289991    
N    -3.64484313710706        -3.42273552964344       -0.239279117652332E-01
N    -3.18711994874345        -3.85256621387895       -0.125036467223811    
N    -2.67913397489498        -4.22163962751008       -0.278439422887654E-01
N    -2.12889645782536        -4.52413526233010        0.816972418037658E-02
N    -1.54508497187474        -4.75528258147577        0.114682554925562E-01
N   -0.936906572928623        -4.91143625364344        0.283006035078020    
N   -0.313952597646566        -4.99013364214136        0.558827821926532E-02
N    0.313952597646564        -4.99013364214136        0.173845835660667    
N    0.936906572928621        -4.91143625364344        0.173845835660667    
N     1.54508497187474        -4.75528258147577        0.558827821926532E-02
N     2.12889645782536        -4.52413526233010        0.283006035078020    
N     2.67913397489498        -4.22163962751008        0.114682554925562E-01
N     3.18711994874345        -3.85256621387895        0.816972418037658E-02
N     3.64484313710706        -3.42273552964344       -0.278439422887654E-01
N     4.04508497187474        -2.93892626146237       -0.125036467223811    
N     4.38153340021932        -2.40876837050858       -0.239279117652332E-01
N     4.64888242944126        -1.84062276342339        0.128904650289991    
N     4.84291580564315        -1.24344943582428        0.914910739342060E-01
N     4.96057350657239       -0.626666167821523       -0.217274275006987    
N     5.00000000000000       -0.122464679914735E-14    0.489271113837974E-01
          50

N     4.96057350657239        0.626666167821521        0.124642093163725    
N     4.84291580564316         1.24344943582427        0.257849932442459E-01
N     4.64888242944126         1.84062276342339       -0.205962281887299    
N     4.38153340021932         2.40876837050858        0.696289663455557E-01
N     4.04508497187474         2.93892626146237        0.145087220634092    
N     3.64484313710706         3.42273552964344       -0.476692183338902E-01
N     3.18711994874345         3.85256621387895       -0.572263668591350E-01
N     2.67913397489498         4.22163962751008       -0.716119374276276E-01
N     2.12889645782536         4.52413526233010       -0.115820933965436E-01
N     1.54508497187474         4.75528258147577        0.216514647664992E-01
N    0.936906572928624         4.91143625364344        0.255259138837817    
N    0.313952597646568         4.99013364214136        0.337327442759669E-01
N   -0.313952597646567         4.99013364214136        0.180586323218460    
N   -0.936906572928623         4.91143625364344        0.180586323218460    
N    -1.54508497187474         4.75528258147577        0.337327442759669E-01
N    -2.12889645782536         4.52413526233010        0.255259138837817    
N    -2.67913397489498         4.22163962751007        0.216514647664992E-01
N    -3.18711994874345         3.85256621387895       -0.115820933965436E-01
N    -3.64484313710706         3.42273552964344       -0.716119374276276E-01
N    -4.04508497187474         2.93892626146237       -0.572263668591350E-01
N    -4.38153340021932         2.40876837050858       -0.476692183338902E-01
N    -4.64888242944126         1.84062276342339        0.145087220634092    
N    -4.84291580564315         1.24344943582428        0.696289663455557E-01
N    -4.96057350657239        0.626666167821523       -0.205962281887299    
N    -5.00000000000000        0.612323399573677E-15    0.257849932442459E-01
N    -4.96057350657239       -0.626666167821522        0.124642093163725    
N    -4.84291580564316        -1.24344943582427        0.257849932442459E-01
N    -4.64888242944126        -1.84062276342339       -0.205962281887299    
N    -4.38153340021932        -2.40876837050858        0.696289663455557E-01
N    -4.04508497187474        -2.93892626146236        0.145087220634092    
N    -3.64484313710706        -3.42273552964344       -0.476692183338902E-01
N    -3.18711994874345        -3.85256621387895       -0.572263668591350E-01
N    -2.67913397489498        -4.22163962751008       -0.716119374276276E-01
N    -2.12889645782536        -4.52413526233010       -0.115820933965436E-01
N    -1.54508497187474        -4.75528258147577        0.216514647664992E-01
N   -0.936906572928623        -4.91143625364344        0.255259138837817    
N   -0.313952597646566        -4.99013364214136        0.337327442759669E-01
N    0.313952597646564        -4.99013364214136        0.180586323218460    
N    0.936906572928621        -4.91143625364344        0.180586323218460    
N     1.54508497187474        -4.75528258147577        0.337327442759669E-01
N     2.12889645782536        -4.52413526233010        0.255259138837817    
N     2.67913397489498        -4.22163962751008        0.216514647664992E-01
N     3.18711994874345        -3.85256621387895       -0.115820933965436E-01
N     3.64484313710706        -3.42273552964344       -0.716119374276276E-01
N     4.04508497187474        -2.93892626146237       -0.572263668591350E-01
N     4.38153340021932        -2.40876837050858       -0.476692183338902E-01
N     4.64888242944126        -1.84062276342339        0.145087220634092    
N     4.84291580564315        -1.24344943582428        0.696289663455557E-01
N     4.96057350657239       -0.626666167821523       -0.205962281887299    
N     5.00000000000000       -0.122464679914735E-14    0.257849932442459E-01
          50

N     4.96057350657239        0.626666167821521        0.156029798207347    
N     4.84291580564316         1.24344943582427       -0.259643094132883E-02
N     4.64888242944126         1.84062276342339       -0.174535748030256    
N     4.38153340021932         2.40876837050858        0.398464175301061E-01
N     4.04508497187474         2.93892626146237        0.150610284974587    
N     3.64484313710706         3.42273552964344       -0.641674459761897E-01
N     3.18711994874345         3.85256621387895        0.104259928878168E-01
N     2.67913397489498         4.22163962751008       -0.112427207381345    
N     2.12889645782536         4.52413526233010       -0.323622827015551E-01
N     1.54508497187474         4.75528258147577        0.397325811957139E-01
N    0.936906572928624         4.91143625364344        0.209503164932336    
N    0.313952597646568         4.99013364214136        0.764347375526996E-01
N   -0.313952597646567         4.99013364214136        0.181521036853745    
N   -0.936906572928623         4.91143625364344        0.181521036853745    
N    -1.54508497187474         4.75528258147577        0.764347375526996E-01
N    -2.12889645782536         4.52413526233010        0.209503164932336    
N    -2.67913397489498         4.22163962751007        0.397325811957139E-01
N    -3.18711994874345         3.85256621387895       -0.323622827015551E-01
N    -3.64484313710706         3.42273552964344       -0.112427207381345    
N    -4.04508497187474         2.93892626146237        0.104259928878168E-01
N    -4.38153340021932         2.40876837050858       -0.641674459761897E-01
N    -4.64888242944126         1.84062276342339        0.150610284974587    
N    -4.84291580564315         1.24344943582428        0.398464175301061E-01
N    -4.96057350657239        0.626666167821523       -0.174535748030256    
N    -5.00000000000000        0.612323399573677E-15   -0.259643094132883E-02
N    -4.96057350657239       -0.626666167821522        0.156029798207347    
N    -4.84291580564316        -1.24344943582427       -0.259643094132883E-02
N    -4.64888242944126        -1.84062276342339       -0.174535748030256    
N    -4.38153340021932        -2.40876837050858        0.398464175301061E-01
N    -4.04508497187474        -2.93892626146236        0.150610284974587    
N    -3.64484313710706        -3.42273552964344       -0.641674459761897E-01
N    -3.18711994874345        -3.85256621387895        0.104259928878168E-01
N    -2.67913397489498        -4.22163962751008       -0.112427207381345    
N    -2.12889645782536        -4.52413526233010       -0.323622827015551E-01
N    -1.54508497187474        -4.75528258147577        0.397325811957139E-01
N   -0.936906572928623        -4.91143625364344        0.209503164932336    
N   -0.313952597646566        -4.99013364214136        0.764347375526996E-01
N    0.313952597646564        -4.99013364214136        0.181521036853745    
N    0.936906572928621        -4.91143625364344        0.181521036853745    
N     1.54508497187474        -4.75528258147577        0.764347375526996E-01
N     2.12889645782536        -4.52413526233010        0.209503164932336    
N     2.67913397489498        -4.22163962751008        0.397325811957139E-01
N     3.18711994874345        -3.85256621387895       -0.323622827015551E-01
N     3.64484313710706        -3.42273552964344       -0.112427207381345    
N     4.04508497187474        -2.93892626146237        0.104259928878168E-01
N     4.38153340021932        -2.40876837050858       -0.641674459761897E-01
N     4.64888242944126        -1.84062276342339        0.150610284974587    
N     4.84291580564315        -1.24344943582428        0.398464175301061E-01
N     4.96057350657239       -0.626666167821523       -0.174535748030256    
N     5.00000000000000       -0.122464679914735E-14   -0.259643094132883E-02
          50

N     4.96057350657239        0.626666167821521        0.174808273539883    
N     4.84291580564316         1.24344943582427       -0.314977030607691E-01
N     4.64888242944126         1.84062276342339       -0.127774584747448    
N     4.38153340021932         2.40876837050858        0.595476782947444E-02
N     4.04508497187474         2.93892626146237        0.143222819073117    
N     3.64484313710706         3.42273552964344       -0.692370281682954E-01
N     3.18711994874345         3.85256621387895        0.702981601414877E-01
N     2.67913397489498         4.22163962751008       -0.145206822921172    
N     2.12889645782536         4.52413526233010       -0.534193798848035E-01
N     1.54508497187474         4.75528258147577        0.616536405095812E-01
N    0.936906572928624         4.91143625364344        0.151758584969266    
N    0.313952597646568         4.99013364214136        0.128545563043517    
N   -0.313952597646567         4.99013364214136        0.178297846446107    
N   -0.936906572928623         4.91143625364344        0.178297846446107    
N    -1.54508497187474         4.75528258147577        0.128545563043517    
N    -2.12889645782536         4.52413526233010        0.151758584969266    
N    -2.67913397489498         4.22163962751007        0.616536405095812E-01
N    -3.18711994874345         3.85256621387895       -0.534193798848035E-01
N    -3.64484313710706         3.42273552964344       -0.145206822921172    
N    -4.04508497187474         2.93892626146237        0.702981601414877E-01
N    -4.38153340021932         2.40876837050858       -0.692370281682954E-01
N    -4.64888242944126         1.84062276342339        0.143222819073117    
N    -4.84291580564315         1.24344943582428        0.595476782947444E-02
N    -4.96057350657239        0.626666167821523       -0.127774584747448    
N    -5.00000000000000        0.612323399573677E-15   -0.314977030607691E-01
N    -4.96057350657239       -0.626666167821522        0.174808273539883    
N    -4.84291580564316        -1.24344943582427       -0.314977030607691E-01
N    -4.64888242944126        -1.84062276342339       -0.127774584747448    
N    -4.38153340021932        -2.40876837050858        0.595476782947444E-02
N    -4.04508497187474        -2.93892626146236        0.143222819073117    
N    -3.64484313710706        -3.42273552964344       -0.692370281682954E-01
N    -3.18711994874345        -3.85256621387895        0.702981601414877E-01
N    -2.67913397489498        -4.22163962751008       -0.145206822921172    
N    -2.12889645782536        -4.52413526233010       -0.534193798848035E-01
N    -1.54508497187474        -4.75528258147577        0.616536405095812E-01
N   -0.936906572928623        -4.91143625364344        0.151758584969266    
N   -0.313952597646566        -4.99013364214136        0.128545563043517    
N    0.313952597646564        -4.99013364214136        0.178297846446107    
N    0.936906572928621        -4.91143625364344        0.178297846446107    
N     1.54508497187474        -4.75528258147577        0.128545563043517    
N     2.12889645782536        -4.52413526233010        0.151758584969266    
N     2.67913397489498        -4.22163962751008        0.616536405095812E-01
N     3.18711994874345        -3.85256621387895       -0.534193798848035E-01
N     3.64484313710706        -3.42273552964344       -0.145206822921172    
N     4.04508497187474        -2.93892626146237        0.702981601414877E-01
N     4.38153340021932        -2.40876837050858       -0.692370281682954E-01
N     4.64888242944126        -1.84062276342339        0.143222819073117    
N     4.84291580564315        -1.24344943582428        0.595476782947444E-02
N     4.96057350657239       -0.626666167821523       -0.127774584747448    
N     5.00000000000000       -0.122464679914735E-14   -0.314977030607691E-01
          50

N     4.96057350657239        0.626666167821521        0.177221128268582    
N     4.84291580564316         1.24344943582427       -0.560512333651354E-01
N     4.64888242944126         1.84062276342339       -0.718593354292191E-01
N     4.38153340021932         2.40876837050858       -0.278120701893281E-01
N     4.04508497187474         2.93892626146237        0.121986256489874    
N     3.64484313710706         3.42273552964344       -0.604137144425124E-01
N     3.18711994874345         3.85256621387895        0.116150400262071    
N     2.67913397489498         4.22163962751008       -0.165820300252278    
N     2.12889645782536         4.52413526233010       -0.735138783620626E-01
N     1.54508497187474         4.75528258147577        0.825707350886826E-01
N    0.936906572928624         4.91143625364344        0.895177449430716E-01
N    0.313952597646568         4.99013364214136        0.183533980589151    
N   -0.313952597646567         4.99013364214136        0.173100850533399    
N   -0.936906572928623         4.91143625364344        0.173100850533399    
N    -1.54508497187474         4.75528258147577        0.183533980589151    
N    -2.12889645782536         4.52413526233010        0.895177449430716E-01
N    -2.67913397489498         4.22163962751007        0.825707350886826E-01
N    -3.18711994874345         3.85256621387895       -0.735138783620626E-01
N    -3.64484313710706         3.42273552964344       -0.165820300252278    
N    -4.04508497187474         2.93892626146237        0.116150400262071    
N    -4.38153340021932         2.40876837050858       -0.604137144425124E-01
N    -4.64888242944126         1.84062276342339        0.121986256489874    
N    -4.84291580564315         1.24344943582428       -0.278120701893281E-01
N    -4.96057350657239        0.626666167821523       -0.718593354292191E-01
N    -5.00000000000000        0.612323399573677E-15   -0.560512333651354E-01
N    -4.96057350657239       -0.626666167821522        0.177221128268582    
N    -4.84291580564316        -1.24344943582427       -0.560512333651354E-01
N    -4.64888242944126        -1.84062276342339       -0.718593354292191E-01
N    -4.38153340021932        -2.40876837050858       -0.278120701893281E-01
N    -4.04508497187474        -2.93892626146236        0.121986256489874    
N    -3.64484313710706        -3.42273552964344       -0.604137144425124E-01
N    -3.18711994874345        -3.85256621387895        0.116150400262071    
N    -2.67913397489498        -4.22163962751008       -0.165820300252278    
N    -2.12889645782536        -4.52413526233010       -0.735138783620626E-01
N    -1.54508497187474        -4.75528258147577        0.825707350886826E-01
N   -0.936906572928623        -4.91143625364344        0.895177449430716E-01
N   -0.313952597646566        -4.99013364214136        0.183533980589151    
N    0.313952597646564        -4.99013364214136        0.173100850533399    
N    0.936906572928621        -4.91143625364344        0.173100850533399    
N     1.54508497187474        -4.75528258147577        0.183533980589151    
N     2.12889645782536        -4.52413526233010        0.895177449430716E-01
N     2.67913397489498        -4.22163962751008        0.825707350886826E-01
N     3.18711994874345        -3.85256621387895       -0.735138783620626E-01
N     3.64484313710706        -3.42273552964344       -0.165820300252278    
N     4.04508497187474        -2.93892626146237        0.116150400262071    
N     4.38153340021932        -2.40876837050858       -0.604137144425124E-01
N     4.64888242944126        -1.84062276342339        0.121986256489874    
N     4.84291580564315        -1.24344943582428       -0.278120701893281E-01
N     4.96057350657239       -0.626666167821523       -0.718593354292191E-01
N     5.00000000000000       -0.122464679914735E-14   -0.560512333651354E-01
          50

N     4.96057350657239        0.626666167821521        0.161153813208992    
N     4.84291580564316         1.24344943582427       -0.720178323093931E-01
N     4.64888242944126         1.84062276342339       -0.135230441629093E-01
N     4.38153340021932         2.40876837050858       -0.574129710500001E-01
N     4.04508497187474         2.93892626146237        0.876115570922104E-01
N     3.64484313710706         3.42273552964344       -0.374319649613977E-01
N     3.18711994874345         3.85256621387895        0.143880234351250    
N     2.67913397489498         4.22163962751008       -0.171614419196836    
N     2.12889645782536         4.52413526233010       -0.910443955211667E-01
N     1.54508497187474         4.75528258147577        0.975819906768449E-01
N    0.936906572928624         4.91143625364344        0.307029294306407E-01
N    0.313952597646568         4.99013364214136        0.234385072230964    
N   -0.313952597646567         4.99013364214136        0.168305936815301    
N   -0.936906572928623         4.91143625364344        0.168305936815301    
N    -1.54508497187474         4.75528258147577        0.234385072230964    
N    -2.12889645782536         4.52413526233010        0.307029294306407E-01
N    -2.67913397489498         4.22163962751007        0.975819906768449E-01
N    -3.18711994874345         3.85256621387895       -0.910443955211667E-01
N    -3.64484313710706         3.42273552964344       -0.171614419196836    
N    -4.04508497187474         2.93892626146237        0.143880234351250    
N    -4.38153340021932         2.40876837050858       -0.374319649613977E-01
N    -4.64888242944126         1.84062276342339        0.876115570922104E-01
N    -4.84291580564315         1.24344943582428       -0.574129710500001E-01
N    -4.96057350657239        0.626666167821523       -0.135230441629093E-01
N    -5.00000000000000        0.612323399573677E-15   -0.720178323093931E-01
N    -4.96057350657239       -0.626666167821522        0.161153813208992    
N    -4.84291580564316        -1.24344943582427       -0.720178323093931E-01
N    -4.64888242944126        -1.84062276342339       -0.135230441629093E-01
N    -4.38153340021932        -2.40876837050858       -0.574129710500001E-01
N    -4.04508497187474        -2.93892626146236        0.876115570922104E-01
N    -3.64484313710706        -3.42273552964344       -0.374319649613977E-01
N    -3.18711994874345        -3.85256621387895        0.143880234351250    
N    -2.67913397489498        -4.22163962751008       -0.171614419196836    
N    -2.12889645782536        -4.52413526233010       -0.910443955211667E-01
N    -1.54508497187474        -4.75528258147577        0.975819906768449E-01
N   -0.936906572928623        -4.91143625364344        0.307029294306407E-01
N   -0.313952597646566        -4.99013364214136        0.234385072230964    
N    0.313952597646564        -4.99013364214136        0.168305936815301    
N    0.936906572928621        -4.91143625364344        0.168305936815301    
N     1.54508497187474        -4.75528258147577        0.234385072230964    
N     2.12889645782536        -4.52413526233010        0.307029294306407E-01
N     2.67913397489498        -4.22163962751008        0.975819906768449E-01
N     3.18711994874345        -3.85256621387895       -0.910443955211667E-01
N     3.64484313710706        -3.42273552964344       -0.171614419196836    
N     4.04508497187474        -2.93892626146237        0.143880234351250    
N     4.38153340021932        -2.40876837050858       -0.374319649613977E-01
N     4.64888242944126        -1.84062276342339        0.876115570922104E-01
N     4.84291580564315        -1.24344943582428       -0.574129710500001E-01
N     4.96057350657239       -0.626666167821523       -0.135230441629093E-01
N     5.00000000000000       -0.122464679914735E-14   -0.720178323093931E-01
          50

N     4.96057350657239        0.626666167821521        0.126633956829312    
N     4.84291580564316         1.24344943582427       -0.764705837406915E-01
N     4.64888242944126         1.84062276342339        0.408086588069181E-01
N     4.38153340021932         2.40876837050858       -0.795567606787655E-01
N     4.04508497187474         2.93892626146237        0.425714456777000E-01
N     3.64484313710706         3.42273552964344       -0.237895861880012E-02
N     3.18711994874345         3.85256621387895        0.151962877311781    
N     2.67913397489498         4.22163962751008       -0.161722695944328    
N     2.12889645782536         4.52413526233010       -0.104262756702501    
N     1.54508497187474         4.75528258147577        0.102491127679744    
N    0.936906572928624         4.91143625364344       -0.174309322055580E-01
N    0.313952597646568         4.99013364214136        0.274561975414048    
N   -0.313952597646567         4.99013364214136        0.166109624585802    
N   -0.936906572928623         4.91143625364344        0.166109624585802    
N    -1.54508497187474         4.75528258147577        0.274561975414048    
N    -2.12889645782536         4.52413526233010       -0.174309322055580E-01
N    -2.67913397489498         4.22163962751007        0.102491127679744    
N    -3.18711994874345         3.85256621387895       -0.104262756702501    
N    -3.64484313710706         3.42273552964344       -0.161722695944328    
N    -4.04508497187474         2.93892626146237        0.151962877311781    
N    -4.38153340021932         2.40876837050858       -0.237895861880012E-02
N    -4.64888242944126         1.84062276342339        0.425714456777000E-01
N    -4.84291580564315         1.24344943582428       -0.795567606787655E-01
N    -4.96057350657239        0.626666167821523        0.408086588069181E-01
N    -5.00000000000000        0.612323399573677E-15   -0.764705837406915E-01
N    -4.96057350657239       -0.626666167821522        0.126633956829312    
N    -4.84291580564316        -1.24344943582427       -0.764705837406915E-01
N    -4.64888242944126        -1.84062276342339        0.408086588069181E-01
N    -4.38153340021932        -2.40876837050858       -0.795567606787655E-01
N    -4.04508497187474        -2.93892626146236        0.425714456777000E-01
N    -3.64484313710706        -3.42273552964344       -0.237895861880012E-02
N    -3.18711994874345        -3.85256621387895        0.151962877311781    
N    -2.67913397489498        -4.22163962751008       -0.161722695944328    
N    -2.12889645782536        -4.52413526233010       -0.104262756702501    
N    -1.54508497187474        -4.75528258147577        0.102491127679744    
N   -0.936906572928623        -4.91143625364344       -0.174309322055580E-01
N   -0.313952597646566        -4.99013364214136        0.274561975414048    
N    0.313952597646564        -4.99013364214136        0.166109624585802    
N    0.936906572928621        -4.91143625364344        0.166109624585802    
N     1.54508497187474        -4.75528258147577        0.274561975414048    
N     2.12889645782536        -4.52413526233010       -0.174309322055580E-01
N     2.67913397489498        -4.22163962751008        0.102491127679744    
N     3.18711994874345        -3.85256621387895       -0.104262756702501    
N     3.64484313710706        -3.42273552964344       -0.161722695944328    
N     4.04508497187474        -2.93892626146237        0.151962877311781    
N     4.38153340021932        -2.40876837050858       -0.237895861880012E-02
N     4.64888242944126        -1.84062276342339        0.425714456777000E-01
N     4.84291580564315        -1.24344943582428       -0.795567606787655E-01
N     4.96057350657239       -0.626666167821523        0.408086588069181E-01
N     5.00000000000000       -0.122464679914735E-14   -0.764705837406915E-01
          50

N     4.96057350657239        0.626666167821521        0.760585251012561E-01
N     4.84291580564316         1.24344943582427       -0.682783700671608E-01
N     4.64888242944126         1.84062276342339        0.857722444625982E-01
N     4.38153340021932         2.40876837050858       -0.921187967559349E-01
N     4.04508497187474         2.93892626146237       -0.904896665661909E-02
N     3.64484313710706         3.42273552964344        0.405086825780614E-01
N     3.18711994874345         3.85256621387895        0.141524384362381    
N     2.67913397489498         4.22163962751008       -0.137126024004953    
N     2.12889645782536         4.52413526233010       -0.111543125211705    
N     1.54508497187474         4.75528258147577        0.944944179113037E-01
N    0.936906572928624         4.91143625364344       -0.492939895025142E-01
N    0.313952597646568         4.99013364214136        0.298896402612457    
N   -0.313952597646567         4.99013364214136        0.168183877721462    
N   -0.936906572928623         4.91143625364344        0.168183877721462    
N    -1.54508497187474         4.75528258147577        0.298896402612457    
N    -2.12889645782536         4.52413526233010       -0.492939895025142E-01
N    -2.67913397489498         4.22163962751007        0.944944179113037E-01
N    -3.18711994874345         3.85256621387895       -0.111543125211705    
N    -3.64484313710706         3.42273552964344       -0.137126024004953    
N    -4.04508497187474         2.93892626146237        0.141524384362381    
N    -4.38153340021932         2.40876837050858        0.405086825780614E-01
N    -4.64888242944126         1.84062276342339       -0.904896665661909E-02
N    -4.84291580564315         1.24344943582428       -0.921187967559349E-01
N    -4.96057350657239        0.626666167821523        0.857722444625982E-01
N    -5.00000000000000        0.612323399573677E-15   -0.682783700671608E-01
N    -4.96057350657239       -0.626666167821522        0.760585251012561E-01
N    -4.84291580564316        -1.24344943582427       -0.682783700671608E-01
N    -4.64888242944126        -1.84062276342339        0.857722444625982E-01
N    -4.38153340021932        -2.40876837050858       -0.921187967559349E-01
N    -4.04508497187474        -2.93892626146236       -0.904896665661909E-02
N    -3.64484313710706        -3.42273552964344        0.405086825780614E-01
N    -3.18711994874345        -3.85256621387895        0.141524384362381    
N    -2.67913397489498        -4.22163962751008       -0.137126024004953    
N    -2.12889645782536        -4.52413526233010       -0.111543125211705    
N    -1.54508497187474        -4.75528258147577        0.944944179113037E-01
N   -0.936906572928623        -4.91143625364344       -0.492939895025142E-01
N   -0.313952597646566        -4.99013364214136        0.298896402612457    
N    0.313952597646564        -4.99013364214136        0.168183877721462    
N    0.936906572928621        -4.91143625364344        0.168183877721462    
N     1.54508497187474        -4.75528258147577        0.298896402612457    
N     2.12889645782536        -4.52413526233010       -0.492939895025142E-01
N     2.67913397489498        -4.22163962751008        0.944944179113037E-01
N     3.18711994874345        -3.85256621387895       -0.111543125211705    
N     3.64484313710706        -3.42273552964344       -0.137126024004953    
N     4.04508497187474        -2.93892626146237        0.141524384362381    
N     4.38153340021932        -2.40876837050858        0.405086825780614E-01
N     4.64888242944126        -1.84062276342339       -0.904896665661909E-02
N     4.84291580564315        -1.24344943582428       -0.921187967559349E-01
N     4.96057350657239       -0.626666167821523        0.857722444625982E-01
N     5.00000000000000       -0.122464679914735E-14   -0.682783700671608E-01
          50

N     4.96057350657239        0.626666167821521        0.140918440674815E-01
N     4.84291580564316         1.24344943582427       -0.483121186035861E-01
N     4.64888242944126         1.84062276342339        0.117620455007822    
N     4.38153340021932         2.40876837050858       -0.943601163550249E-01
N     4.04508497187474         2.93892626146237       -0.619596566732607E-01
N     3.64484313710706         3.42273552964344        0.853862808290534E-01
N     3.18711994874345         3.85256621387895        0.116047286929945    
N     2.67913397489498         4.22163962751008       -0.100467298174920    
N     2.12889645782536         4.52413526233010       -0.111659264153617    
N     1.54508497187474         4.75528258147577        0.726867352393783E-01
N    0.936906572928624         4.91143625364344       -0.617184206183127E-01
N    0.313952597646568         4.99013364214136        0.304284456603305    
N   -0.313952597646567         4.99013364214136        0.175405737935483    
N   -0.936906572928623         4.91143625364344        0.175405737935483    
N    -1.54508497187474         4.75528258147577        0.304284456603305    
N    -2.12889645782536         4.52413526233010       -0.617184206183127E-01
N    -2.67913397489498         4.22163962751007        0.726867352393783E-01
N    -3.18711994874345         3.85256621387895       -0.111659264153617    
N    -3.64484313710706         3.42273552964344       -0.100467298174920    
N    -4.04508497187474         2.93892626146237        0.116047286929945    
N    -4.38153340021932         2.40876837050858        0.853862808290534E-01
N    -4.64888242944126         1.84062276342339       -0.619596566732607E-01
N    -4.84291580564315         1.24344943582428       -0.943601163550249E-01
N    -4.96057350657239        0.626666167821523        0.117620455007822    
N    -5.00000000000000        0.612323399573677E-15   -0.483121186035861E-01
N    -4.96057350657239       -0.626666167821522        0.140918440674815E-01
N    -4.84291580564316        -1.24344943582427       -0.483121186035861E-01
N    -4.64888242944126        -1.84062276342339        0.117620455007822    
N    -4.38153340021932        -2.40876837050858       -0.943601163550249E-01
N    -4.04508497187474        -2.93892626146236       -0.619596566732607E-01
N    -3.64484313710706        -3.42273552964344        0.853862808290534E-01
N    -3.18711994874345        -3.85256621387895        0.116047286929945    
N    -2.67913397489498        -4.22163962751008       -0.100467298174920    
N    -2.12889645782536        -4.52413526233010       -0.111659264153617    
N    -1.54508497187474        -4.75528258147577        0.726867352393783E-01
N   -0.936906572928623        -4.91143625364344       -0.617184206183127E-01
N   -0.313952597646566        -4.99013364214136        0.304284456603305    
N    0.313952597646564        -4.99013364214136        0.175405737935483    
N    0.936906572928621        -4.91143625364344        0.175405737935483    
N     1.54508497187474        -4.75528258147577        0.304284456603305    
N     2.12889645782536        -4.52413526233010       -0.617184206183127E-01
N     2.67913397489498        -4.22163962751008        0.726867352393783E-01
N     3.18711994874345        -3.85256621387895       -0.111659264153617    
N     3.64484313710706        -3.42273552964344       -0.100467298174920    
N     4.04508497187474        -2.93892626146237        0.116047286929945    
N     4.38153340021932        -2.40876837050858        0.853862808290534E-01
N     4.64888242944126        -1.84062276342339       -0.619596566732607E-01
N     4.84291580564315        -1.24344943582428       -0.943601163550249E-01
N     4.96057350657239       -0.626666167821523        0.117620455007822    
N     5.00000000000000       -0.122464679914735E-14   -0.483121186035861E-01
          50

N     4.96057350657239        0.626666167821521       -0.527735721845705E-01
N     4.84291580564316         1.24344943582427       -0.193396421587004E-01
N     4.64888242944126         1.84062276342339        0.134515206905053    
N     4.38153340021932         2.40876837050858       -0.869259593548498E-01
N     4.04508497187474         2.93892626146237       -0.110286232340088    
N     3.64484313710706         3.42273552964344        0.125610016268720    
N     3.18711994874345         3.85256621387895        0.807606269388706E-01
N     2.67913397489498         4.22163962751008       -0.556571273027690E-01
N     2.12889645782536         4.52413526233010       -0.104020818662992    
N     1.54508497187474         4.75528258147577        0.383059159504200E-01
N    0.936906572928624         4.91143625364344       -0.543672906034988E-01
N    0.313952597646568         4.99013364214136        0.290092114114492    
N   -0.313952597646567         4.99013364214136        0.187699976337634    
N   -0.936906572928623         4.91143625364344        0.187699976337634    
N    -1.54508497187474         4.75528258147577        0.290092114114492    
N    -2.12889645782536         4.52413526233010       -0.543672906034988E-01
N    -2.67913397489498         4.22163962751007        0.383059159504200E-01
N    -3.18711994874345         3.85256621387895       -0.104020818662992    
N    -3.64484313710706         3.42273552964344       -0.556571273027690E-01
N    -4.04508497187474         2.93892626146237        0.807606269388706E-01
N    -4.38153340021932         2.40876837050858        0.125610016268720    
N    -4.64888242944126         1.84062276342339       -0.110286232340088    
N    -4.84291580564315         1.24344943582428       -0.869259593548498E-01
N    -4.96057350657239        0.626666167821523        0.134515206905053    
N    -5.00000000000000        0.612323399573677E-15   -0.193396421587004E-01
N    -4.96057350657239       -0.626666167821522       -0.527735721845705E-01
N    -4.84291580564316        -1.24344943582427       -0.193396421587004E-01
N    -4.64888242944126        -1.84062276342339        0.134515206905053    
N    -4.38153340021932        -2.40876837050858       -0.869259593548498E-01
N    -4.04508497187474        -2.93892626146236       -0.110286232340088    
N    -3.64484313710706        -3.42273552964344        0.125610016268720    
N    -3.18711994874345        -3.85256621387895        0.807606269388706E-01
N    -2.67913397489498        -4.22163962751008       -0.556571273027690E-01
N    -2.12889645782536        -4.52413526233010       -0.104020818662992    
N    -1.54508497187474        -4.75528258147577        0.383059159504200E-01
N   -0.936906572928623        -4.91143625364344       -0.543672906034988E-01
N   -0.313952597646566        -4.99013364214136        0.290092114114492    
N    0.313952597646564        -4.99013364214136        0.187699976337634    
N    0.936906572928621        -4.91143625364344        0.187699976337634    
N     1.54508497187474        -4.75528258147577        0.290092114114492    
N     2.12889645782536        -4.52413526233010       -0.543672906034988E-01
N     2.67913397489498        -4.22163962751008        0.383059159504200E-01
N     3.18711994874345        -3.85256621387895       -0.104020818662992    
N     3.64484313710706        -3.42273552964344       -0.556571273027690E-01
N     4.04508497187474        -2.93892626146237        0.807606269388706E-01
N     4.38153340021932        -2.40876837050858        0.125610016268720    
N     4.64888242944126        -1.84062276342339       -0.110286232340088    
N     4.84291580564315        -1.24344943582428       -0.869259593548498E-01
N     4.96057350657239       -0.626666167821523        0.134515206905053    
N     5.00000000000000       -0.122464679914735E-14   -0.193396421587004E-01
          50

N     4.96057350657239        0.626666167821521       -0.116950225533656    
N     4.84291580564316         1.24344943582427        0.143768380463512E-01
N     4.64888242944126         1.84062276342339        0.136540096840208    
N     4.38153340021932         2.40876837050858       -0.716365955974852E-01
N     4.04508497187474         2.93892626146237       -0.148322452421727    
N     3.64484313710706         3.42273552964344        0.154700783262986    
N     3.18711994874345         3.85256621387895        0.418100771837196E-01
N     2.67913397489498         4.22163962751008       -0.733512650239622E-02
N     2.12889645782536         4.52413526233010       -0.888248316986441E-01
N     1.54508497187474         4.75528258147577       -0.532928298284129E-02
N    0.936906572928624         4.91143625364344       -0.297373383177101E-01
N    0.313952597646568         4.99013364214136        0.258215925846523    
N   -0.313952597646567         4.99013364214136        0.204017019107850    
N   -0.936906572928623         4.91143625364344        0.204017019107850    
N    -1.54508497187474         4.75528258147577        0.258215925846523    
N    -2.12889645782536         4.52413526233010       -0.297373383177101E-01
N    -2.67913397489498         4.22163962751007       -0.532928298284129E-02
N    -3.18711994874345         3.85256621387895       -0.888248316986441E-01
N    -3.64484313710706         3.42273552964344       -0.733512650239622E-02
N    -4.04508497187474         2.93892626146237        0.418100771837196E-01
N    -4.38153340021932         2.40876837050858        0.154700783262986    
N    -4.64888242944126         1.84062276342339       -0.148322452421727    
N    -4.84291580564315         1.24344943582428       -0.716365955974852E-01
N    -4.96057350657239        0.626666167821523        0.136540096840208    
N    -5.00000000000000        0.612323399573677E-15    0.143768380463512E-01
N    -4.96057350657239       -0.626666167821522       -0.116950225533656    
N    -4.84291580564316        -1.24344943582427        0.143768380463512E-01
N    -4.64888242944126        -1.84062276342339        0.136540096840208    
N    -4.38153340021932        -2.40876837050858       -0.716365955974852E-01
N    -4.04508497187474        -2.93892626146236       -0.148322452421727    
N    -3.64484313710706        -3.42273552964344        0.154700783262986    
N    -3.18711994874345        -3.85256621387895        0.418100771837196E-01
N    -2.67913397489498        -4.22163962751008       -0.733512650239622E-02
N    -2.12889645782536        -4.52413526233010       -0.888248316986441E-01
N    -1.54508497187474        -4.75528258147577       -0.532928298284129E-02
N   -0.936906572928623        -4.91143625364344       -0.297373383177101E-01
N   -0.313952597646566        -4.99013364214136        0.258215925846523    
N    0.313952597646564        -4.99013364214136        0.204017019107850    
N    0.936906572928621        -4.91143625364344        0.204017019107850    
N     1.54508497187474        -4.75528258147577        0.258215925846523    
N     2.12889645782536        -4.52413526233010       -0.297373383177101E-01
N     2.67913397489498        -4.22163962751008       -0.532928298284129E-02
N     3.18711994874345        -3.85256621387895       -0.888248316986441E-01
N     3.64484313710706        -3.42273552964344       -0.733512650239622E-02
N     4.04508497187474        -2.93892626146237        0.418100771837196E-01
N     4.38153340021932        -2.40876837050858        0.154700783262986    
N     4.64888242944126        -1.84062276342339       -0.148322452421727    
N     4.84291580564315        -1.24344943582428       -0.716365955974852E-01
N     4.96057350657239       -0.626666167821523        0.136540096840208    
N     5.00000000000000       -0.122464679914735E-14    0.143768380463512E-01
          50

N     4.96057350657239        0.626666167821521       -0.170693023084532    
N     4.84291580564316         1.24344943582427        0.477202448244346E-01
N     4.64888242944126         1.84062276342339        0.125455465230783    
N     4.38153340021932         2.40876837050858       -0.511160504107888E-01
N     4.04508497187474         2.93892626146237       -0.171308929378105    
N     3.64484313710706         3.42273552964344        0.167324291109476    
N     3.18711994874345         3.85256621387895        0.533306283149930E-02
N     2.67913397489498         4.22163962751008        0.397319277568068E-01
N     2.12889645782536         4.52413526233010       -0.670917890824563E-01
N     1.54508497187474         4.75528258147577       -0.531887248954678E-01
N    0.936906572928624         4.91143625364344        0.724445291578864E-02
N    0.313952597646568         4.99013364214136        0.212793132813131    
N   -0.313952597646567         4.99013364214136        0.222449427827170    
N   -0.936906572928623         4.91143625364344        0.222449427827170    
N    -1.54508497187474         4.75528258147577        0.212793132813131    
N    -2.12889645782536         4.52413526233010        0.724445291578864E-02
N    -2.67913397489498         4.22163962751007       -0.531887248954678E-01
N    -3.18711994874345         3.85256621387895       -0.670917890824563E-01
N    -3.64484313710706         3.42273552964344        0.397319277568068E-01
N    -4.04508497187474         2.93892626146237        0.533306283149930E-02
N    -4.38153340021932         2.40876837050858        0.167324291109476    
N    -4.64888242944126         1.84062276342339       -0.171308929378105    
N    -4.84291580564315         1.24344943582428       -0.511160504107888E-01
N    -4.96057350657239        0.626666167821523        0.125455465230783    
N    -5.00000000000000        0.612323399573677E-15    0.477202448244346E-01
N    -4.96057350657239       -0.626666167821522       -0.170693023084532    
N    -4.84291580564316        -1.24344943582427        0.477202448244346E-01
N    -4.64888242944126        -1.84062276342339        0.125455465230783    
N    -4.38153340021932        -2.40876837050858       -0.511160504107888E-01
N    -4.04508497187474        -2.93892626146236       -0.171308929378105    
N    -3.64484313710706        -3.42273552964344        0.167324291109476    
N    -3.18711994874345        -3.85256621387895        0.533306283149930E-02
N    -2.67913397489498        -4.22163962751008        0.397319277568068E-01
N    -2.12889645782536        -4.52413526233010       -0.670917890824563E-01
N    -1.54508497187474        -4.75528258147577       -0.531887248954678E-01
N   -0.936906572928623        -4.91143625364344        0.724445291578864E-02
N   -0.313952597646566        -4.99013364214136        0.212793132813131    
N    0.313952597646564        -4.99013364214136        0.222449427827170    
N    0.936906572928621        -4.91143625364344        0.222449427827170    
N     1.54508497187474        -4.75528258147577        0.212793132813131    
N     2.12889645782536        -4.52413526233010        0.724445291578864E-02
N     2.67913397489498        -4.22163962751008       -0.531887248954678E-01
N     3.18711994874345        -3.85256621387895       -0.670917890824563E-01
N     3.64484313710706        -3.42273552964344        0.397319277568068E-01
N     4.04508497187474        -2.93892626146237        0.533306283149930E-02
N     4.38153340021932        -2.40876837050858        0.167324291109476    
N     4.64888242944126        -1.84062276342339       -0.171308929378105    
N     4.84291580564315        -1.24344943582428       -0.511160504107888E-01
N     4.96057350657239       -0.626666167821523        0.125455465230783    
N     5.00000000000000       -0.122464679914735E-14    0.477202448244346E-01
          50

N     4.96057350657239        0.626666167821521       -0.207116186383035    
N     4.84291580564316         1.24344943582427        0.754980859362097E-01
N     4.64888242944126         1.84062276342339        0.104255087068978    
N     4.38153340021932         2.40876837050858       -0.283283232015842E-01
N     4.04508497187474         2.93892626146237       -0.176123156187913    
N     3.64484313710706         3.42273552964344        0.160142671150395    
N     3.18711994874345         3.85256621387895       -0.234255317332751E-01
N     2.67913397489498         4.22163962751008        0.812295651224824E-01
N     2.12889645782536         4.52413526233010       -0.405742388604663E-01
N     1.54508497187474         4.75528258147577       -0.991641231982252E-01
N    0.936906572928624         4.91143625364344        0.499725316035975E-01
N    0.313952597646568         4.99013364214136        0.159604645767985    
N   -0.313952597646567         4.99013364214136        0.240470879723341    
N   -0.936906572928623         4.91143625364344        0.240470879723341    
N    -1.54508497187474         4.75528258147577        0.159604645767985    
N    -2.12889645782536         4.52413526233010        0.499725316035975E-01
N    -2.67913397489498         4.22163962751007       -0.991641231982252E-01
N    -3.18711994874345         3.85256621387895       -0.405742388604663E-01
N    -3.64484313710706         3.42273552964344        0.812295651224824E-01
N    -4.04508497187474         2.93892626146237       -0.234255317332751E-01
N    -4.38153340021932         2.40876837050858        0.160142671150395    
N    -4.64888242944126         1.84062276342339       -0.176123156187913    
N    -4.84291580564315         1.24344943582428       -0.283283232015842E-01
N    -4.96057350657239        0.626666167821523        0.104255087068978    
N    -5.00000000000000        0.612323399573677E-15    0.754980859362097E-01
N    -4.96057350657239       -0.626666167821522       -0.207116186383035    
N    -4.84291580564316        -1.24344943582427        0.754980859362097E-01
N    -4.64888242944126        -1.84062276342339        0.104255087068978    
N    -4.38153340021932        -2.40876837050858       -0.283283232015842E-01
N    -4.04508497187474        -2.93892626146236       -0.176123156187913    
N    -3.64484313710706        -3.42273552964344        0.160142671150395    
N    -3.18711994874345        -3.85256621387895       -0.234255317332751E-01
N    -2.67913397489498        -4.22163962751008        0.812295651224824E-01
N    -2.12889645782536        -4.52413526233010       -0.405742388604663E-01
N    -1.54508497187474        -4.75528258147577       -0.991641231982252E-01
N   -0.936906572928623        -4.91143625364344        0.499725316035975E-01
N   -0.313952597646566        -4.99013364214136        0.159604645767985    
N    0.313952597646564        -4.99013364214136        0.240470879723341    
N    0.936906572928621        -4.91143625364344        0.240470879723341    
N     1.54508497187474        -4.75528258147577        0.159604645767985    
N     2.12889645782536        -4.52413526233010        0.499725316035975E-01
N     2.67913397489498        -4.22163962751008       -0.991641231982252E-01
N     3.18711994874345        -3.85256621387895       -0.405742388604663E-01
N     3.64484313710706        -3.42273552964344        0.812295651224824E-01
N     4.04508497187474        -2.93892626146237       -0.234255317332751E-01
N     4.38153340021932        -2.40876837050858        0.160142671150395    
N     4.64888242944126        -1.84062276342339       -0.176123156187913    
N     4.84291580564315        -1.24344943582428       -0.283283232015842E-01
N     4.96057350657239       -0.626666167821523        0.104255087068978    
N     5.00000000000000       -0.122464679914735E-14    0.754980859362097E-01
          50

N     4.96057350657239        0.626666167821521       -0.221147726869122    
N     4.84291580564316         1.24344943582427        0.932425793970370E-01
N     4.64888242944126         1.84062276342339        0.766084454119640E-01
N     4.38153340021932         2.40876837050858       -0.610234885224167E-02
N     4.04508497187474         2.93892626146237       -0.161774462393302    
N     3.64484313710706         3.42273552964344        0.132408140578969    
N     3.18711994874345         3.85256621387895       -0.408306272343470E-01
N     2.67913397489498         4.22163962751008        0.113775548691055    
N     2.12889645782536         4.52413526233010       -0.115473621145302E-01
N     1.54508497187474         4.75528258147577       -0.136882533424901    
N    0.936906572928624         4.91143625364344        0.911546525881019E-01
N    0.313952597646568         4.99013364214136        0.105257222170913    
N   -0.313952597646567         4.99013364214136        0.255264608615849    
N   -0.936906572928623         4.91143625364344        0.255264608615849    
N    -1.54508497187474         4.75528258147577        0.105257222170913    
N    -2.12889645782536         4.52413526233010        0.911546525881019E-01
N    -2.67913397489498         4.22163962751007       -0.136882533424901    
N    -3.18711994874345         3.85256621387895       -0.115473621145302E-01
N    -3.64484313710706         3.42273552964344        0.113775548691055    
N    -4.04508497187474         2.93892626146237       -0.408306272343470E-01
N    -4.38153340021932         2.40876837050858        0.132408140578969    
N    -4.64888242944126         1.84062276342339       -0.161774462393302    
N    -4.84291580564315         1.24344943582428       -0.610234885224167E-02
N    -4.96057350657239        0.626666167821523        0.766084454119640E-01
N    -5.00000000000000        0.612323399573677E-15    0.932425793970370E-01
N    -4.96057350657239       -0.626666167821522       -0.221147726869122    
N    -4.84291580564316        -1.24344943582427        0.932425793970370E-01
N    -4.64888242944126        -1.84062276342339        0.766084454119640E-01
N    -4.38153340021932        -2.40876837050858       -0.610234885224167E-02
N    -4.04508497187474        -2.93892626146236       -0.161774462393302    
N    -3.64484313710706        -3.42273552964344        0.132408140578969    
N    -3.18711994874345        -3.85256621387895       -0.408306272343470E-01
N    -2.67913397489498        -4.22163962751008        0.113775548691055    
N    -2.12889645782536        -4.52413526233010       -0.115473621145302E-01
N    -1.54508497187474        -4.75528258147577       -0.136882533424901    
N   -0.936906572928623        -4.91143625364344        0.911546525881019E-01
N   -0.313952597646566        -4.99013364214136        0.105257222170913    
N    0.313952597646564        -4.99013364214136        0.255264608615849    
N    0.936906572928621        -4.91143625364344        0.255264608615849    
N     1.54508497187474        -4.75528258147577        0.105257222170913    
N     2.12889645782536        -4.52413526233010        0.911546525881019E-01
N     2.67913397489498        -4.22163962751008       -0.136882533424901    
N     3.18711994874345        -3.85256621387895       -0.115473621145302E-01
N     3.64484313710706        -3.42273552964344        0.113775548691055    
N     4.04508497187474        -2.93892626146237       -0.408306272343470E-01
N     4.38153340021932        -2.40876837050858        0.132408140578969    
N     4.64888242944126        -1.84062276342339       -0.161774462393302    
N     4.84291580564315        -1.24344943582428       -0.610234885224167E-02
N     4.96057350657239       -0.626666167821523        0.766084454119640E-01
N     5.00000000000000       -0.122464679914735E-14    0.932425793970370E-01
          50

N     4.96057350657239        0.626666167821521       -0.210282876291901    
N     4.84291580564316         1.24344943582427        0.979085733075157E-01
N     4.64888242944126         1.84062276342339        0.462828998227148E-01
N     4.38153340021932         2.40876837050858        0.132753087311373E-01
N     4.04508497187474         2.93892626146237       -0.129622684548411    
N     3.64484313710706         3.42273552964344        0.862039833950278E-01
N     3.18711994874345         3.85256621387895       -0.453080390328293E-01
N     2.67913397489498         4.22163962751008        0.135242177353924    
N     2.12889645782536         4.52413526233010        0.174887879505313E-01
N     1.54508497187474         4.75528258147577       -0.160588306222085    
N    0.936906572928624         4.91143625364344        0.123901074171646    
N    0.313952597646568         4.99013364214136        0.562616628706247E-01
N   -0.313952597646567         4.99013364214136        0.264096000346162    
N   -0.936906572928623         4.91143625364344        0.264096000346162    
N    -1.54508497187474         4.75528258147577        0.562616628706247E-01
N    -2.12889645782536         4.52413526233010        0.123901074171646    
N    -2.67913397489498         4.22163962751007       -0.160588306222085    
N    -3.18711994874345         3.85256621387895        0.174887879505313E-01
N    -3.64484313710706         3.42273552964344        0.135242177353924    
N    -4.04508497187474         2.93892626146237       -0.453080390328293E-01
N    -4.38153340021932         2.40876837050858        0.862039833950278E-01
N    -4.64888242944126         1.84062276342339       -0.129622684548411    
N    -4.84291580564315         1.24344943582428        0.132753087311373E-01
N    -4.96057350657239        0.626666167821523        0.462828998227148E-01
N    -5.00000000000000        0.612323399573677E-15    0.979085733075157E-01
N    -4.96057350657239       -0.626666167821522       -0.210282876291901    
N    -4.84291580564316        -1.24344943582427        0.979085733075157E-01
N    -4.64888242944126        -1.84062276342339        0.462828998227148E-01
N    -4.38153340021932        -2.40876837050858        0.132753087311373E-01
N    -4.04508497187474        -2.93892626146236       -0.129622684548411    
N    -3.64484313710706        -3.42273552964344        0.862039833950278E-01
N    -3.18711994874345        -3.85256621387895       -0.453080390328293E-01
N    -2.67913397489498        -4.22163962751008        0.135242177353924    
N    -2.12889645782536        -4.52413526233010        0.174887879505313E-01
N    -1.54508497187474        -4.75528258147577       -0.160588306222085    
N   -0.936906572928623        -4.91143625364344        0.123901074171646    
N   -0.313952597646566        -4.99013364214136        0.562616628706247E-01
N    0.313952597646564        -4.99013364214136        0.264096000346162    
N    0.936906572928621        -4.91143625364344        0.264096000346162    
N     1.54508497187474        -4.75528258147577        0.562616628706247E-01
N     2.12889645782536        -4.52413526233010        0.123901074171646    
N     2.67913397489498        -4.22163962751008       -0.160588306222085    
N     3.18711994874345        -3.85256621387895        0.174887879505313E-01
N     3.64484313710706        -3.42273552964344        0.135242177353924    
N     4.04508497187474        -2.93892626146237       -0.453080390328293E-01
N     4.38153340021932        -2.40876837050858        0.862039833950278E-01
N     4.64888242944126        -1.84062276342339       -0.129622684548411    
N     4.84291580564315        -1.24344943582428        0.132753087311373E-01
N     4.96057350657239       -0.626666167821523        0.462828998227148E-01
N     5.00000000000000       -0.122464679914735E-14    0.979085733075157E-01
          50

N     4.96057350657239        0.626666167821521       -0.175021857595194    
N     4.84291580564316         1.24344943582427        0.883615845207977E-01
N     4.64888242944126         1.84062276342339        0.166350101891086E-01
N     4.38153340021932         2.40876837050858        0.283364573844836E-01
N     4.04508497187474         2.93892626146237       -0.832777800471538E-01
N     3.64484313710706         3.42273552964344        0.262874234464829E-01
N     3.18711994874345         3.85256621387895       -0.374714211810740E-01
N     2.67913397489498         4.22163962751008        0.144889299264843    
N     2.12889645782536         4.52413526233010        0.441497901743208E-01
N     1.54508497187474         4.75528258147577       -0.165968984491641    
N    0.936906572928624         4.91143625364344        0.142753705333809    
N    0.313952597646568         4.99013364214136        0.181376670758088E-01
N   -0.313952597646567         4.99013364214136        0.264678177127818    
N   -0.936906572928623         4.91143625364344        0.264678177127818    
N    -1.54508497187474         4.75528258147577        0.181376670758088E-01
N    -2.12889645782536         4.52413526233010        0.142753705333809    
N    -2.67913397489498         4.22163962751007       -0.165968984491641    
N    -3.18711994874345         3.85256621387895        0.441497901743208E-01
N    -3.64484313710706         3.42273552964344        0.144889299264843    
N    -4.04508497187474         2.93892626146237       -0.374714211810740E-01
N    -4.38153340021932         2.40876837050858        0.262874234464829E-01
N    -4.64888242944126         1.84062276342339       -0.832777800471538E-01
N    -4.84291580564315         1.24344943582428        0.283364573844836E-01
N    -4.96057350657239        0.626666167821523        0.166350101891086E-01
N    -5.00000000000000        0.612323399573677E-15    0.883615845207977E-01
N    -4.96057350657239       -0.626666167821522       -0.175021857595194    
N    -4.84291580564316        -1.24344943582427        0.883615845207977E-01
N    -4.64888242944126        -1.84062276342339        0.166350101891086E-01
N    -4.38153340021932        -2.40876837050858        0.283364573844836E-01
N    -4.04508497187474        -2.93892626146236       -0.832777800471538E-01
N    -3.64484313710706        -3.42273552964344        0.262874234464829E-01
N    -3.18711994874345        -3.85256621387895       -0.374714211810740E-01
N    -2.67913397489498        -4.22163962751008        0.144889299264843    
N    -2.12889645782536        -4.52413526233010        0.441497901743208E-01
N    -1.54508497187474        -4.75528258147577       -0.165968984491641    
N   -0.936906572928623        -4.91143625364344        0.142753705333809    
N   -0.313952597646566        -4.99013364214136        0.181376670758088E-01
N    0.313952597646564        -4.99013364214136        0.264678177127818    
N    0.936906572928621        -4.91143625364344        0.264678177127818    
N     1.54508497187474        -4.75528258147577        0.181376670758088E-01
N     2.12889645782536        -4.52413526233010        0.142753705333809    
N     2.67913397489498        -4.22163962751008       -0.165968984491641    
N     3.18711994874345        -3.85256621387895        0.441497901743208E-01
N     3.64484313710706        -3.42273552964344        0.144889299264843    
N     4.04508497187474        -2.93892626146237       -0.374714211810740E-01
N     4.38153340021932        -2.40876837050858        0.262874234464829E-01
N     4.64888242944126        -1.84062276342339       -0.832777800471538E-01
N     4.84291580564315        -1.24344943582428        0.283364573844836E-01
N     4.96057350657239       -0.626666167821523        0.166350101891086E-01
N     5.00000000000000       -0.122464679914735E-14    0.883615845207977E-01
          50

N     4.96057350657239        0.626666167821521       -0.118918932623156    
N     4.84291580564316         1.24344943582427        0.655800471159212E-01
N     4.64888242944126         1.84062276342339       -0.975858356954970E-02
N     4.38153340021932         2.40876837050858        0.385380402660029E-01
N     4.04508497187474         2.93892626146237       -0.281837273665010E-01
N     3.64484313710706         3.42273552964344       -0.404541595818081E-01
N     3.18711994874345         3.85256621387895       -0.199159041057816E-01
N     2.67913397489498         4.22163962751008        0.143305800537984    
N     2.12889645782536         4.52413526233010        0.664959052243466E-01
N     1.54508497187474         4.75528258147577       -0.150805772255129    
N    0.936906572928624         4.91143625364344        0.144505856044950    
N    0.313952597646568         4.99013364214136       -0.532876759694514E-02
N   -0.313952597646567         4.99013364214136        0.255480731598095    
N   -0.936906572928623         4.91143625364344        0.255480731598095    
N    -1.54508497187474         4.75528258147577       -0.532876759694514E-02
N    -2.12889645782536         4.52413526233010        0.144505856044950    
N    -2.67913397489498         4.22163962751007       -0.150805772255129    
N    -3.18711994874345         3.85256621387895        0.664959052243466E-01
N    -3.64484313710706         3.42273552964344        0.143305800537984    
N    -4.04508497187474         2.93892626146237       -0.199159041057816E-01
N    -4.38153340021932         2.40876837050858       -0.404541595818081E-01
N    -4.64888242944126         1.84062276342339       -0.281837273665010E-01
N    -4.84291580564315         1.24344943582428        0.385380402660029E-01
N    -4.96057350657239        0.626666167821523       -0.975858356954970E-02
N    -5.00000000000000        0.612323399573677E-15    0.655800471159212E-01
N    -4.96057350657239       -0.626666167821522       -0.118918932623156    
N    -4.84291580564316        -1.24344943582427        0.655800471159212E-01
N    -4.64888242944126        -1.84062276342339       -0.975858356954970E-02
N    -4.38153340021932        -2.40876837050858        0.385380402660029E-01
N    -4.04508497187474        -2.93892626146236       -0.281837273665010E-01
N    -3.64484313710706        -3.42273552964344       -0.404541595818081E-01
N    -3.18711994874345        -3.85256621387895       -0.199159041057816E-01
N    -2.67913397489498        -4.22163962751008        0.143305800537984    
N    -2.12889645782536        -4.52413526233010        0.664959052243466E-01
N    -1.54508497187474        -4.75528258147577       -0.150805772255129    
N   -0.936906572928623        -4.91143625364344        0.144505856044950    
N   -0.313952597646566        -4.99013364214136       -0.532876759694514E-02
N    0.313952597646564        -4.99013364214136        0.255480731598095    
N    0.936906572928621        -4.91143625364344        0.255480731598095    
N     1.54508497187474        -4.75528258147577       -0.532876759694514E-02
N     2.12889645782536        -4.52413526233010        0.144505856044950    
N     2.67913397489498        -4.22163962751008       -0.150805772255129    
N     3.18711994874345        -3.85256621387895        0.664959052243466E-01
N     3.64484313710706        -3.42273552964344        0.143305800537984    
N     4.04508497187474        -2.93892626146237       -0.199159041057816E-01
N     4.38153340021932        -2.40876837050858       -0.404541595818081E-01
N     4.64888242944126        -1.84062276342339       -0.281837273665010E-01
N     4.84291580564315        -1.24344943582428        0.385380402660029E-01
N     4.96057350657239       -0.626666167821523       -0.975858356954970E-02
N     5.00000000000000       -0.122464679914735E-14    0.655800471159212E-01
